86
Lattice="8.42 0.0 0.0 0.0 8.42 0.0 0.0 0.0 14.21" Properties=species:S:1:pos:R:3 system=Periclase size=10 n_waters=18 time_s=0.16 pbc="T T T"
Mg       0.00000000       0.00000000       6.05250000
O        2.10500000       0.00000000       6.05250000
Mg       0.00000000       2.10500000       8.15750000
O        2.10500000       2.10500000       8.15750000
Mg       2.10500000       0.00000000       8.15750000
O        0.00000000       0.00000000       8.15750000
Mg       2.10500000       2.10500000       6.05250000
O        0.00000000       2.10500000       6.05250000
Mg       0.00000000       4.21000000       6.05250000
O        2.10500000       4.21000000       6.05250000
Mg       0.00000000       6.31500000       8.15750000
O        2.10500000       6.31500000       8.15750000
Mg       2.10500000       4.21000000       8.15750000
O        0.00000000       4.21000000       8.15750000
Mg       2.10500000       6.31500000       6.05250000
O        0.00000000       6.31500000       6.05250000
Mg       4.21000000       0.00000000       6.05250000
O        6.31500000       0.00000000       6.05250000
Mg       4.21000000       2.10500000       8.15750000
O        6.31500000       2.10500000       8.15750000
Mg       6.31500000       0.00000000       8.15750000
O        4.21000000       0.00000000       8.15750000
Mg       6.31500000       2.10500000       6.05250000
O        4.21000000       2.10500000       6.05250000
Mg       4.21000000       4.21000000       6.05250000
O        6.31500000       4.21000000       6.05250000
Mg       4.21000000       6.31500000       8.15750000
O        6.31500000       6.31500000       8.15750000
Mg       6.31500000       4.21000000       8.15750000
O        4.21000000       4.21000000       8.15750000
Mg       6.31500000       6.31500000       6.05250000
O        4.21000000       6.31500000       6.05250000
O        4.03595851       3.46413150      10.89401452
H        4.36782876       3.12321353      10.06343104
H        4.26716816       2.79456527      11.53779631
O        6.23641663       6.30499425      12.49540854
H        6.47940002       5.84233398      13.29736639
H        6.72395653       7.12773209      12.53589477
O        1.34445282       2.98995014       3.56576014
H        0.56880778       3.02574375       3.00600534
H        2.08078747       2.96952167       2.95451075
O        1.74648288       1.15995326       0.16827295
H        2.23050728       0.96383264       0.97045056
H        1.94523558       0.42887732      -0.41675456
O        6.80929755       5.13283319       3.05295001
H        7.05257161       5.75476253       2.36719972
H        7.63658091       4.91116713       3.48038216
O        0.76693930       4.53853624       0.78919542
H        1.02922402       3.72774191       0.35324689
H        1.36785080       4.61791495       1.53003023
O        6.93459415       3.59977485       0.95210608
H        7.22708552       3.13589349       1.73664080
H        5.98115920       3.51597874       0.96521485
O        5.07264048       6.53479352       0.93636050
H        5.56578592       5.79555871       0.58059188
H        4.46304392       6.13908444       1.55928762
O        2.14575974       6.91119127      10.79219905
H        2.52159666       7.43133522      10.08196759
H        2.26851789       7.44899196      11.57446033
O        4.37913135       2.69597453       1.44384413
H        4.41894508       3.45613542       0.86349757
H        4.09926015       1.97644410       0.87799971
O        3.26857927       7.57593074       2.67882411
H        3.57373188       6.68382517       2.84393430
H        3.97122758       8.13511319       3.01023350
O        0.10131581       4.80423782      11.68229547
H       -0.61289128       4.54830831      12.26593935
H        0.36990349       3.98847195      11.25966260
O        1.33572471       0.57988206       2.71129389
H        0.95589082       0.58990932       3.58984810
H        1.96619912       1.30010808       2.71418261
O        3.83036826       1.55775703      13.22351515
H        3.57268901       0.63589471      13.22174888
H        3.09960258       2.01040068      13.64461737
O        0.79279388       6.69102742       2.33977689
H        0.77599073       7.25994731       3.10937396
H       -0.02672306       6.88085977       1.88306307
O        6.76273544       2.30343000      11.54964227
H        7.01731157       2.08691491      12.44660606
H        6.66928006       1.45553544      11.11539262
O        4.90658415       4.38265651      13.77374314
H        5.10444562       4.84279842      12.95805196
H        3.96760333       4.51625748      13.90296243
O        6.75135427       1.11978647       2.47015075
H        6.01312896       0.96387144       1.88112975
H        6.82644876       0.31291402       2.97961077
344
Lattice="16.84 0.0 0.0 0.0 16.84 0.0 0.0 0.0 14.21" Properties=species:S:1:pos:R:3 system=Periclase size=15 n_waters=72 time_s=0.23 pbc="T T T"
Mg       0.00000000       0.00000000       6.05250000
O        2.10500000       0.00000000       6.05250000
Mg       0.00000000       2.10500000       8.15750000
O        2.10500000       2.10500000       8.15750000
Mg       2.10500000       0.00000000       8.15750000
O        0.00000000       0.00000000       8.15750000
Mg       2.10500000       2.10500000       6.05250000
O        0.00000000       2.10500000       6.05250000
Mg       0.00000000       4.21000000       6.05250000
O        2.10500000       4.21000000       6.05250000
Mg       0.00000000       6.31500000       8.15750000
O        2.10500000       6.31500000       8.15750000
Mg       2.10500000       4.21000000       8.15750000
O        0.00000000       4.21000000       8.15750000
Mg       2.10500000       6.31500000       6.05250000
O        0.00000000       6.31500000       6.05250000
Mg       0.00000000       8.42000000       6.05250000
O        2.10500000       8.42000000       6.05250000
Mg       0.00000000      10.52500000       8.15750000
O        2.10500000      10.52500000       8.15750000
Mg       2.10500000       8.42000000       8.15750000
O        0.00000000       8.42000000       8.15750000
Mg       2.10500000      10.52500000       6.05250000
O        0.00000000      10.52500000       6.05250000
Mg       0.00000000      12.63000000       6.05250000
O        2.10500000      12.63000000       6.05250000
Mg       0.00000000      14.73500000       8.15750000
O        2.10500000      14.73500000       8.15750000
Mg       2.10500000      12.63000000       8.15750000
O        0.00000000      12.63000000       8.15750000
Mg       2.10500000      14.73500000       6.05250000
O        0.00000000      14.73500000       6.05250000
Mg       4.21000000       0.00000000       6.05250000
O        6.31500000       0.00000000       6.05250000
Mg       4.21000000       2.10500000       8.15750000
O        6.31500000       2.10500000       8.15750000
Mg       6.31500000       0.00000000       8.15750000
O        4.21000000       0.00000000       8.15750000
Mg       6.31500000       2.10500000       6.05250000
O        4.21000000       2.10500000       6.05250000
Mg       4.21000000       4.21000000       6.05250000
O        6.31500000       4.21000000       6.05250000
Mg       4.21000000       6.31500000       8.15750000
O        6.31500000       6.31500000       8.15750000
Mg       6.31500000       4.21000000       8.15750000
O        4.21000000       4.21000000       8.15750000
Mg       6.31500000       6.31500000       6.05250000
O        4.21000000       6.31500000       6.05250000
Mg       4.21000000       8.42000000       6.05250000
O        6.31500000       8.42000000       6.05250000
Mg       4.21000000      10.52500000       8.15750000
O        6.31500000      10.52500000       8.15750000
Mg       6.31500000       8.42000000       8.15750000
O        4.21000000       8.42000000       8.15750000
Mg       6.31500000      10.52500000       6.05250000
O        4.21000000      10.52500000       6.05250000
Mg       4.21000000      12.63000000       6.05250000
O        6.31500000      12.63000000       6.05250000
Mg       4.21000000      14.73500000       8.15750000
O        6.31500000      14.73500000       8.15750000
Mg       6.31500000      12.63000000       8.15750000
O        4.21000000      12.63000000       8.15750000
Mg       6.31500000      14.73500000       6.05250000
O        4.21000000      14.73500000       6.05250000
Mg       8.42000000       0.00000000       6.05250000
O       10.52500000       0.00000000       6.05250000
Mg       8.42000000       2.10500000       8.15750000
O       10.52500000       2.10500000       8.15750000
Mg      10.52500000       0.00000000       8.15750000
O        8.42000000       0.00000000       8.15750000
Mg      10.52500000       2.10500000       6.05250000
O        8.42000000       2.10500000       6.05250000
Mg       8.42000000       4.21000000       6.05250000
O       10.52500000       4.21000000       6.05250000
Mg       8.42000000       6.31500000       8.15750000
O       10.52500000       6.31500000       8.15750000
Mg      10.52500000       4.21000000       8.15750000
O        8.42000000       4.21000000       8.15750000
Mg      10.52500000       6.31500000       6.05250000
O        8.42000000       6.31500000       6.05250000
Mg       8.42000000       8.42000000       6.05250000
O       10.52500000       8.42000000       6.05250000
Mg       8.42000000      10.52500000       8.15750000
O       10.52500000      10.52500000       8.15750000
Mg      10.52500000       8.42000000       8.15750000
O        8.42000000       8.42000000       8.15750000
Mg      10.52500000      10.52500000       6.05250000
O        8.42000000      10.52500000       6.05250000
Mg       8.42000000      12.63000000       6.05250000
O       10.52500000      12.63000000       6.05250000
Mg       8.42000000      14.73500000       8.15750000
O       10.52500000      14.73500000       8.15750000
Mg      10.52500000      12.63000000       8.15750000
O        8.42000000      12.63000000       8.15750000
Mg      10.52500000      14.73500000       6.05250000
O        8.42000000      14.73500000       6.05250000
Mg      12.63000000       0.00000000       6.05250000
O       14.73500000       0.00000000       6.05250000
Mg      12.63000000       2.10500000       8.15750000
O       14.73500000       2.10500000       8.15750000
Mg      14.73500000       0.00000000       8.15750000
O       12.63000000       0.00000000       8.15750000
Mg      14.73500000       2.10500000       6.05250000
O       12.63000000       2.10500000       6.05250000
Mg      12.63000000       4.21000000       6.05250000
O       14.73500000       4.21000000       6.05250000
Mg      12.63000000       6.31500000       8.15750000
O       14.73500000       6.31500000       8.15750000
Mg      14.73500000       4.21000000       8.15750000
O       12.63000000       4.21000000       8.15750000
Mg      14.73500000       6.31500000       6.05250000
O       12.63000000       6.31500000       6.05250000
Mg      12.63000000       8.42000000       6.05250000
O       14.73500000       8.42000000       6.05250000
Mg      12.63000000      10.52500000       8.15750000
O       14.73500000      10.52500000       8.15750000
Mg      14.73500000       8.42000000       8.15750000
O       12.63000000       8.42000000       8.15750000
Mg      14.73500000      10.52500000       6.05250000
O       12.63000000      10.52500000       6.05250000
Mg      12.63000000      12.63000000       6.05250000
O       14.73500000      12.63000000       6.05250000
Mg      12.63000000      14.73500000       8.15750000
O       14.73500000      14.73500000       8.15750000
Mg      14.73500000      12.63000000       8.15750000
O       12.63000000      12.63000000       8.15750000
Mg      14.73500000      14.73500000       6.05250000
O       12.63000000      14.73500000       6.05250000
O       12.47283325      12.60998850      12.49540854
H       12.71581665      12.14732824      13.29736639
H       12.96037316      13.43272634      12.53589477
O        7.20389005      10.86260177      11.19261023
H        7.41222059      11.77530059      11.39213737
H        7.99795292      10.51920694      10.78300556
O        2.68890565       5.97990028       3.56576014
H        1.91326060       6.01569389       3.00600534
H        3.42524029       5.95947181       2.95451075
O        3.49296576       2.31990651       0.16827295
H        3.97699016       2.12378590       0.97045056
H        3.69171846       1.58883058      -0.41675456
O       14.00343731       5.89253651       2.03757104
H       14.93658072       5.68032017       2.01660852
H       13.83471063       6.31621381       1.19598878
O       13.61859509      10.26566638       3.05295001
H       13.86186916      10.88759572       2.36719972
H       14.44587845      10.04400032       3.48038216
O       16.30043190      13.30882818       2.78375834
H       16.06416775      14.22952848       2.67096628
H       15.73038877      12.83851904       2.17540649
O        0.10659127       3.40217536      13.53247607
H       -0.49906010       4.08648581      13.24762968
H        0.40520087       2.99275045      12.72041979
O        1.53387860       9.07707248       0.78919542
H        1.79616332       8.26627815       0.35324689
H        2.13479010       9.15645119       1.53003023
O       16.25035244       3.72021409       3.74730701
H       15.72929959       3.11969327       4.28032718
H       17.15701569       3.52947126       3.98774570
O        6.44502607       4.96546065      11.45073299
H        6.00753744       4.13351522      11.63157090
H        6.15046855       5.20550851      10.57218604
O       10.14528097      13.06958704       0.93636050
H       10.63842640      12.33035223       0.58059188
H        9.53568440      12.67387797       1.55928762
O        4.33362976       8.52624728       1.60821849
H        3.83237405       8.93106443       0.90033599
H        5.03248932       9.15275437       1.79614406
O       13.67593094       3.33595726       1.30852980
H       14.38504878       2.78482710       0.97741157
H       13.05848896       2.72069189       1.70406205
O        4.29151949      13.82238255      10.79219905
H        4.66735641      14.34252649      10.08196759
H        4.41427763      14.36018323      11.57446033
O       10.46218564      15.58600237       0.92519801
H       10.92471584      16.20826977       1.48651872
H        9.64194938      15.41054119       1.38634625
O        5.13398826       4.15977765      13.54096044
H        5.07834696       5.10918158      13.43247979
H        5.82661452       4.03248865      14.18926455
O        8.75826270       5.39194906       1.44384413
H        8.79807643       6.15210996       0.86349757
H        8.47839151       4.67241863       0.87799971
O        8.09241598      15.89400463      11.75662293
H        8.82488553      16.17502271      12.30502884
H        8.29413848      14.98516309      11.53403154
O        6.53715855      15.15186148       2.67882411
H        6.84231115      14.25975591       2.84393430
H        7.23980686      15.71104394       3.01023350
O        0.20263161       9.60847563      11.68229547
H       -0.51157547       9.35254613      12.26593935
H        0.47121929       8.79270976      11.25966260
O        2.67144942       1.15976412       2.71129389
H        2.29161552       1.16979137       3.58984810
H        3.30192382       1.87999013       2.71418261
O       12.87259522       7.79292709       0.01297471
H       13.02494259       7.97873662       0.93952581
H       12.47967372       6.92012940       0.00468475
O        5.88882955      12.12708487       1.93911675
H        5.64378201      11.86630944       1.05132189
H        5.79759232      11.32780398       2.45782445
O        5.27755431      16.20366486      11.90578369
H        4.77354451      16.54060324      12.64651204
H        5.68534525      16.97916521      11.52037795
O        3.53604451       9.90623149      12.44714400
H        2.68328643      10.20046835      12.12705001
H        3.37372570       9.63941106      13.35195962
O        1.58562101      15.50720318      12.24164812
H        2.36098378      14.94755365      12.28450636
H        1.72396860      16.16176453      12.92622186
O       15.85499974       0.95301028       0.29878907
H       15.84222794       0.08559891       0.70334592
H       16.76889844       1.23160417       0.35715387
O       13.90944189       6.40666228      11.16190015
H       13.74152597       6.24808833      12.09081909
H       14.85996297       6.50286289      11.10284956
O       10.92286496       6.96649655      11.99668499
H       10.57252817       7.01752381      12.88600619
H       11.23158424       7.85292160      11.80913534
O        0.85960776       5.52546696      11.19207957
H        1.17882660       6.41038901      11.01531950
H        1.44632567       4.95503814      10.69548627
O        9.81316831       8.76531301      13.77374314
H       10.01102978       9.22545493      12.95805196
H        8.87418748       8.89891399      13.90296243
O       10.47297589       1.21708577      13.89174061
H        9.73468451       0.74279971      13.50936593
H       11.24676802       0.81577931      13.49622738
O        2.17369507      12.00827178      10.33579975
H        1.95358262      12.93930221      10.36685899
H        2.89217200      11.91055390      10.96067889
O       14.66562232       8.91713865       1.27484740
H       14.71759537       9.67031213       0.68640850
H       15.50308780       8.46720407       1.16330243
O        6.41533823       8.56579107      10.91346679
H        6.73966467       7.92947174      10.27617416
H        5.92951135       8.04152892      11.55014040
O       11.19483700      10.23368757       1.54667881
H       10.45999415      10.49786113       0.99309940
H       10.91170884       9.41045646       1.94462456
O        2.27539121       6.59438399       0.34797816
H        3.06126193       6.32047686      -0.12490020
H        2.47221080       6.41161059       1.26672066
O        5.50255968       2.35549105      11.56526202
H        5.86490881       1.67188669      12.12883991
H        4.57252860       2.14034443      11.49465070
O        0.26526270      11.52631968       0.66476817
H       -0.38591205      11.37017493       1.34874338
H       -0.22787071      11.46910783      -0.15363154
O        7.62752122      12.68945331      14.00724911
H        6.72392059      12.40737679      14.14927230
H        8.00428691      12.73922921      14.88577162
O        3.70096567      15.10545076       2.05178535
H        3.16537728      14.33262575       1.87256922
H        4.58117442      14.75882692       2.19778639
O        2.66153567       7.89244176      10.73062694
H        1.87289960       8.39627316      10.52953268
H        2.90862995       7.49080567       9.89764152
O        8.63327556      12.37993664       3.42506409
H        8.23345065      12.98495358       4.04982515
H        8.01037137      11.65609190       3.35971105
O        8.54914972       3.26492228      13.49130118
H        8.94224434       2.42266027      13.72000006
H        7.90968139       3.05444849      12.81085068
O        9.65725054       8.80190445      10.21535121
H        8.73289750       8.55455154      10.24024793
H        9.69171383       9.64693427      10.66364655
O        0.88395783      15.79735018       2.53845984
H        0.39967055      15.39743259       3.26079189
H        1.36388378      16.52031345       2.94247349
O        8.55600288       6.55859056      12.60018769
H        9.02380387       7.36235594      12.37357062
H        8.51504657       6.06558805      11.78073486
O       15.14090819       1.93684171      11.35108736
H       15.42248997       2.80929149      11.07581490
H       15.07355871       1.99596492      12.30408281
O        6.71757926       2.43930055       1.54563917
H        7.00440446       2.07168973       0.70968137
H        7.08251722       3.32413570       1.55654186
O        3.01122480       8.36699460       3.74299236
H        3.29251456       7.55939423       3.31300452
H        2.06002164       8.37684603       3.63646849
O       14.98331812      14.65601485      13.65615037
H       15.82691836      15.07076438      13.83657570
H       15.08405995      13.75885703      13.97425534
O        2.02874507       4.39908325       1.58872561
H        2.24244885       3.48630268       1.78210133
H        1.48986773       4.35722208       0.79873150
O       13.09463861       3.63315303      10.45193449
H       13.86103096       4.16248867      10.67256627
H       12.40358300       4.27222563      10.27797986
O       16.70087084       7.18265337       2.89887240
H       15.86228323       7.60461497       3.08582447
H       16.60094022       6.83172730       2.01394495
O       12.62886774      15.11022838      12.01867975
H       11.69835738      15.29334225      12.14849359
H       12.96015906      14.91742257      12.89577941
O        6.27006956       7.38241702       0.32641102
H        6.68576552       7.08449282      -0.48270570
H        5.48639747       6.83885560       0.40784122
O        2.86812049      12.24562630       1.19464738
H        2.96616320      12.32750528       0.24600872
H        2.20513347      11.56482930       1.30951909
O        8.92401100      12.86495678      10.96449500
H        8.04243887      13.22975024      11.04187815
H        9.46487131      13.60230808      10.68162575
O       13.28736178      15.71861410       3.26351284
H       13.87777133      16.10955775       3.90757143
H       12.41869657      15.79149328       3.65891292
O       13.97997392      10.36583816      10.49660618
H       13.64914928       9.62677201       9.98614744
H       14.93232754      10.27911147      10.45497789
O       12.37265402       4.65529108      13.61635102
H       12.14907469       3.77277919      13.32068757
H       13.18043496       4.86759878      13.14875371
O        1.15220864       2.74917466      11.22923239
H        2.02402457       2.89038673      10.86014164
H        0.81970940       3.62976128      11.40313836
O        5.70842205       5.73328981       4.20046197
H        5.30302793       6.42459268       3.67702354
H        5.91585032       5.04449448       3.56898249
O       12.23225397       0.70513901      10.61629597
H       12.71339180       0.15562111      11.23497869
H       12.31799811       1.59201764      10.96604742
O       10.58982929       3.23188770       2.58598746
H       10.91838013       3.62608763       3.39400516
H       11.31044244       3.32560808       1.96295856
O        9.69026495       2.89551351      10.68857286
H       10.64133346       3.00087208      10.66407590
H        9.34981744       3.69511504      10.28736875
O        8.62716762       8.79146724       3.07132492
H        9.15183419       8.43256077       3.78696658
H        9.22310618       8.80953044       2.32248396
O       16.81089637       1.12229345       3.67850289
H       17.49829585       1.61354938       4.12837111
H       16.29482578       1.79020796       3.22706831
O        0.15098553       7.33173766      13.44459756
H        0.62713777       7.91683621      12.85538573
H       -0.26352430       7.91588621      14.07956521
O        5.28594905      10.31946879       3.91019961
H        6.18163059      10.14346742       3.62208516
H        4.89796320       9.45277547       4.03078779
O        2.31425549       0.99373162      12.43488664
H        1.37081397       0.89049071      12.31042278
H        2.65548380       1.15992163      11.55615120
739
Lattice="21.05 0.0 0.0 0.0 21.05 0.0 0.0 0.0 18.42" Properties=species:S:1:pos:R:3 system=Periclase size=20 n_waters=113 time_s=0.28 pbc="T T T"
Mg       0.00000000       0.00000000       6.05250000
O        2.10500000       0.00000000       6.05250000
Mg       0.00000000       2.10500000       8.15750000
O        2.10500000       2.10500000       8.15750000
Mg       2.10500000       0.00000000       8.15750000
O        0.00000000       0.00000000       8.15750000
Mg       2.10500000       2.10500000       6.05250000
O        0.00000000       2.10500000       6.05250000
Mg       0.00000000       0.00000000      10.26250000
O        2.10500000       0.00000000      10.26250000
Mg       0.00000000       2.10500000      12.36750000
O        2.10500000       2.10500000      12.36750000
Mg       2.10500000       0.00000000      12.36750000
O        0.00000000       0.00000000      12.36750000
Mg       2.10500000       2.10500000      10.26250000
O        0.00000000       2.10500000      10.26250000
Mg       0.00000000       4.21000000       6.05250000
O        2.10500000       4.21000000       6.05250000
Mg       0.00000000       6.31500000       8.15750000
O        2.10500000       6.31500000       8.15750000
Mg       2.10500000       4.21000000       8.15750000
O        0.00000000       4.21000000       8.15750000
Mg       2.10500000       6.31500000       6.05250000
O        0.00000000       6.31500000       6.05250000
Mg       0.00000000       4.21000000      10.26250000
O        2.10500000       4.21000000      10.26250000
Mg       0.00000000       6.31500000      12.36750000
O        2.10500000       6.31500000      12.36750000
Mg       2.10500000       4.21000000      12.36750000
O        0.00000000       4.21000000      12.36750000
Mg       2.10500000       6.31500000      10.26250000
O        0.00000000       6.31500000      10.26250000
Mg       0.00000000       8.42000000       6.05250000
O        2.10500000       8.42000000       6.05250000
Mg       0.00000000      10.52500000       8.15750000
O        2.10500000      10.52500000       8.15750000
Mg       2.10500000       8.42000000       8.15750000
O        0.00000000       8.42000000       8.15750000
Mg       2.10500000      10.52500000       6.05250000
O        0.00000000      10.52500000       6.05250000
Mg       0.00000000       8.42000000      10.26250000
O        2.10500000       8.42000000      10.26250000
Mg       0.00000000      10.52500000      12.36750000
O        2.10500000      10.52500000      12.36750000
Mg       2.10500000       8.42000000      12.36750000
O        0.00000000       8.42000000      12.36750000
Mg       2.10500000      10.52500000      10.26250000
O        0.00000000      10.52500000      10.26250000
Mg       0.00000000      12.63000000       6.05250000
O        2.10500000      12.63000000       6.05250000
Mg       0.00000000      14.73500000       8.15750000
O        2.10500000      14.73500000       8.15750000
Mg       2.10500000      12.63000000       8.15750000
O        0.00000000      12.63000000       8.15750000
Mg       2.10500000      14.73500000       6.05250000
O        0.00000000      14.73500000       6.05250000
Mg       0.00000000      12.63000000      10.26250000
O        2.10500000      12.63000000      10.26250000
Mg       0.00000000      14.73500000      12.36750000
O        2.10500000      14.73500000      12.36750000
Mg       2.10500000      12.63000000      12.36750000
O        0.00000000      12.63000000      12.36750000
Mg       2.10500000      14.73500000      10.26250000
O        0.00000000      14.73500000      10.26250000
Mg       0.00000000      16.84000000       6.05250000
O        2.10500000      16.84000000       6.05250000
Mg       0.00000000      18.94500000       8.15750000
O        2.10500000      18.94500000       8.15750000
Mg       2.10500000      16.84000000       8.15750000
O        0.00000000      16.84000000       8.15750000
Mg       2.10500000      18.94500000       6.05250000
O        0.00000000      18.94500000       6.05250000
Mg       0.00000000      16.84000000      10.26250000
O        2.10500000      16.84000000      10.26250000
Mg       0.00000000      18.94500000      12.36750000
O        2.10500000      18.94500000      12.36750000
Mg       2.10500000      16.84000000      12.36750000
O        0.00000000      16.84000000      12.36750000
Mg       2.10500000      18.94500000      10.26250000
O        0.00000000      18.94500000      10.26250000
Mg       4.21000000       0.00000000       6.05250000
O        6.31500000       0.00000000       6.05250000
Mg       4.21000000       2.10500000       8.15750000
O        6.31500000       2.10500000       8.15750000
Mg       6.31500000       0.00000000       8.15750000
O        4.21000000       0.00000000       8.15750000
Mg       6.31500000       2.10500000       6.05250000
O        4.21000000       2.10500000       6.05250000
Mg       4.21000000       0.00000000      10.26250000
O        6.31500000       0.00000000      10.26250000
Mg       4.21000000       2.10500000      12.36750000
O        6.31500000       2.10500000      12.36750000
Mg       6.31500000       0.00000000      12.36750000
O        4.21000000       0.00000000      12.36750000
Mg       6.31500000       2.10500000      10.26250000
O        4.21000000       2.10500000      10.26250000
Mg       4.21000000       4.21000000       6.05250000
O        6.31500000       4.21000000       6.05250000
Mg       4.21000000       6.31500000       8.15750000
O        6.31500000       6.31500000       8.15750000
Mg       6.31500000       4.21000000       8.15750000
O        4.21000000       4.21000000       8.15750000
Mg       6.31500000       6.31500000       6.05250000
O        4.21000000       6.31500000       6.05250000
Mg       4.21000000       4.21000000      10.26250000
O        6.31500000       4.21000000      10.26250000
Mg       4.21000000       6.31500000      12.36750000
O        6.31500000       6.31500000      12.36750000
Mg       6.31500000       4.21000000      12.36750000
O        4.21000000       4.21000000      12.36750000
Mg       6.31500000       6.31500000      10.26250000
O        4.21000000       6.31500000      10.26250000
Mg       4.21000000       8.42000000       6.05250000
O        6.31500000       8.42000000       6.05250000
Mg       4.21000000      10.52500000       8.15750000
O        6.31500000      10.52500000       8.15750000
Mg       6.31500000       8.42000000       8.15750000
O        4.21000000       8.42000000       8.15750000
Mg       6.31500000      10.52500000       6.05250000
O        4.21000000      10.52500000       6.05250000
Mg       4.21000000       8.42000000      10.26250000
O        6.31500000       8.42000000      10.26250000
Mg       4.21000000      10.52500000      12.36750000
O        6.31500000      10.52500000      12.36750000
Mg       6.31500000       8.42000000      12.36750000
O        4.21000000       8.42000000      12.36750000
Mg       6.31500000      10.52500000      10.26250000
O        4.21000000      10.52500000      10.26250000
Mg       4.21000000      12.63000000       6.05250000
O        6.31500000      12.63000000       6.05250000
Mg       4.21000000      14.73500000       8.15750000
O        6.31500000      14.73500000       8.15750000
Mg       6.31500000      12.63000000       8.15750000
O        4.21000000      12.63000000       8.15750000
Mg       6.31500000      14.73500000       6.05250000
O        4.21000000      14.73500000       6.05250000
Mg       4.21000000      12.63000000      10.26250000
O        6.31500000      12.63000000      10.26250000
Mg       4.21000000      14.73500000      12.36750000
O        6.31500000      14.73500000      12.36750000
Mg       6.31500000      12.63000000      12.36750000
O        4.21000000      12.63000000      12.36750000
Mg       6.31500000      14.73500000      10.26250000
O        4.21000000      14.73500000      10.26250000
Mg       4.21000000      16.84000000       6.05250000
O        6.31500000      16.84000000       6.05250000
Mg       4.21000000      18.94500000       8.15750000
O        6.31500000      18.94500000       8.15750000
Mg       6.31500000      16.84000000       8.15750000
O        4.21000000      16.84000000       8.15750000
Mg       6.31500000      18.94500000       6.05250000
O        4.21000000      18.94500000       6.05250000
Mg       4.21000000      16.84000000      10.26250000
O        6.31500000      16.84000000      10.26250000
Mg       4.21000000      18.94500000      12.36750000
O        6.31500000      18.94500000      12.36750000
Mg       6.31500000      16.84000000      12.36750000
O        4.21000000      16.84000000      12.36750000
Mg       6.31500000      18.94500000      10.26250000
O        4.21000000      18.94500000      10.26250000
Mg       8.42000000       0.00000000       6.05250000
O       10.52500000       0.00000000       6.05250000
Mg       8.42000000       2.10500000       8.15750000
O       10.52500000       2.10500000       8.15750000
Mg      10.52500000       0.00000000       8.15750000
O        8.42000000       0.00000000       8.15750000
Mg      10.52500000       2.10500000       6.05250000
O        8.42000000       2.10500000       6.05250000
Mg       8.42000000       0.00000000      10.26250000
O       10.52500000       0.00000000      10.26250000
Mg       8.42000000       2.10500000      12.36750000
O       10.52500000       2.10500000      12.36750000
Mg      10.52500000       0.00000000      12.36750000
O        8.42000000       0.00000000      12.36750000
Mg      10.52500000       2.10500000      10.26250000
O        8.42000000       2.10500000      10.26250000
Mg       8.42000000       4.21000000       6.05250000
O       10.52500000       4.21000000       6.05250000
Mg       8.42000000       6.31500000       8.15750000
O       10.52500000       6.31500000       8.15750000
Mg      10.52500000       4.21000000       8.15750000
O        8.42000000       4.21000000       8.15750000
Mg      10.52500000       6.31500000       6.05250000
O        8.42000000       6.31500000       6.05250000
Mg       8.42000000       4.21000000      10.26250000
O       10.52500000       4.21000000      10.26250000
Mg       8.42000000       6.31500000      12.36750000
O       10.52500000       6.31500000      12.36750000
Mg      10.52500000       4.21000000      12.36750000
O        8.42000000       4.21000000      12.36750000
Mg      10.52500000       6.31500000      10.26250000
O        8.42000000       6.31500000      10.26250000
Mg       8.42000000       8.42000000       6.05250000
O       10.52500000       8.42000000       6.05250000
Mg       8.42000000      10.52500000       8.15750000
O       10.52500000      10.52500000       8.15750000
Mg      10.52500000       8.42000000       8.15750000
O        8.42000000       8.42000000       8.15750000
Mg      10.52500000      10.52500000       6.05250000
O        8.42000000      10.52500000       6.05250000
Mg       8.42000000       8.42000000      10.26250000
O       10.52500000       8.42000000      10.26250000
Mg       8.42000000      10.52500000      12.36750000
O       10.52500000      10.52500000      12.36750000
Mg      10.52500000       8.42000000      12.36750000
O        8.42000000       8.42000000      12.36750000
Mg      10.52500000      10.52500000      10.26250000
O        8.42000000      10.52500000      10.26250000
Mg       8.42000000      12.63000000       6.05250000
O       10.52500000      12.63000000       6.05250000
Mg       8.42000000      14.73500000       8.15750000
O       10.52500000      14.73500000       8.15750000
Mg      10.52500000      12.63000000       8.15750000
O        8.42000000      12.63000000       8.15750000
Mg      10.52500000      14.73500000       6.05250000
O        8.42000000      14.73500000       6.05250000
Mg       8.42000000      12.63000000      10.26250000
O       10.52500000      12.63000000      10.26250000
Mg       8.42000000      14.73500000      12.36750000
O       10.52500000      14.73500000      12.36750000
Mg      10.52500000      12.63000000      12.36750000
O        8.42000000      12.63000000      12.36750000
Mg      10.52500000      14.73500000      10.26250000
O        8.42000000      14.73500000      10.26250000
Mg       8.42000000      16.84000000       6.05250000
O       10.52500000      16.84000000       6.05250000
Mg       8.42000000      18.94500000       8.15750000
O       10.52500000      18.94500000       8.15750000
Mg      10.52500000      16.84000000       8.15750000
O        8.42000000      16.84000000       8.15750000
Mg      10.52500000      18.94500000       6.05250000
O        8.42000000      18.94500000       6.05250000
Mg       8.42000000      16.84000000      10.26250000
O       10.52500000      16.84000000      10.26250000
Mg       8.42000000      18.94500000      12.36750000
O       10.52500000      18.94500000      12.36750000
Mg      10.52500000      16.84000000      12.36750000
O        8.42000000      16.84000000      12.36750000
Mg      10.52500000      18.94500000      10.26250000
O        8.42000000      18.94500000      10.26250000
Mg      12.63000000       0.00000000       6.05250000
O       14.73500000       0.00000000       6.05250000
Mg      12.63000000       2.10500000       8.15750000
O       14.73500000       2.10500000       8.15750000
Mg      14.73500000       0.00000000       8.15750000
O       12.63000000       0.00000000       8.15750000
Mg      14.73500000       2.10500000       6.05250000
O       12.63000000       2.10500000       6.05250000
Mg      12.63000000       0.00000000      10.26250000
O       14.73500000       0.00000000      10.26250000
Mg      12.63000000       2.10500000      12.36750000
O       14.73500000       2.10500000      12.36750000
Mg      14.73500000       0.00000000      12.36750000
O       12.63000000       0.00000000      12.36750000
Mg      14.73500000       2.10500000      10.26250000
O       12.63000000       2.10500000      10.26250000
Mg      12.63000000       4.21000000       6.05250000
O       14.73500000       4.21000000       6.05250000
Mg      12.63000000       6.31500000       8.15750000
O       14.73500000       6.31500000       8.15750000
Mg      14.73500000       4.21000000       8.15750000
O       12.63000000       4.21000000       8.15750000
Mg      14.73500000       6.31500000       6.05250000
O       12.63000000       6.31500000       6.05250000
Mg      12.63000000       4.21000000      10.26250000
O       14.73500000       4.21000000      10.26250000
Mg      12.63000000       6.31500000      12.36750000
O       14.73500000       6.31500000      12.36750000
Mg      14.73500000       4.21000000      12.36750000
O       12.63000000       4.21000000      12.36750000
Mg      14.73500000       6.31500000      10.26250000
O       12.63000000       6.31500000      10.26250000
Mg      12.63000000       8.42000000       6.05250000
O       14.73500000       8.42000000       6.05250000
Mg      12.63000000      10.52500000       8.15750000
O       14.73500000      10.52500000       8.15750000
Mg      14.73500000       8.42000000       8.15750000
O       12.63000000       8.42000000       8.15750000
Mg      14.73500000      10.52500000       6.05250000
O       12.63000000      10.52500000       6.05250000
Mg      12.63000000       8.42000000      10.26250000
O       14.73500000       8.42000000      10.26250000
Mg      12.63000000      10.52500000      12.36750000
O       14.73500000      10.52500000      12.36750000
Mg      14.73500000       8.42000000      12.36750000
O       12.63000000       8.42000000      12.36750000
Mg      14.73500000      10.52500000      10.26250000
O       12.63000000      10.52500000      10.26250000
Mg      12.63000000      12.63000000       6.05250000
O       14.73500000      12.63000000       6.05250000
Mg      12.63000000      14.73500000       8.15750000
O       14.73500000      14.73500000       8.15750000
Mg      14.73500000      12.63000000       8.15750000
O       12.63000000      12.63000000       8.15750000
Mg      14.73500000      14.73500000       6.05250000
O       12.63000000      14.73500000       6.05250000
Mg      12.63000000      12.63000000      10.26250000
O       14.73500000      12.63000000      10.26250000
Mg      12.63000000      14.73500000      12.36750000
O       14.73500000      14.73500000      12.36750000
Mg      14.73500000      12.63000000      12.36750000
O       12.63000000      12.63000000      12.36750000
Mg      14.73500000      14.73500000      10.26250000
O       12.63000000      14.73500000      10.26250000
Mg      12.63000000      16.84000000       6.05250000
O       14.73500000      16.84000000       6.05250000
Mg      12.63000000      18.94500000       8.15750000
O       14.73500000      18.94500000       8.15750000
Mg      14.73500000      16.84000000       8.15750000
O       12.63000000      16.84000000       8.15750000
Mg      14.73500000      18.94500000       6.05250000
O       12.63000000      18.94500000       6.05250000
Mg      12.63000000      16.84000000      10.26250000
O       14.73500000      16.84000000      10.26250000
Mg      12.63000000      18.94500000      12.36750000
O       14.73500000      18.94500000      12.36750000
Mg      14.73500000      16.84000000      12.36750000
O       12.63000000      16.84000000      12.36750000
Mg      14.73500000      18.94500000      10.26250000
O       12.63000000      18.94500000      10.26250000
Mg      16.84000000       0.00000000       6.05250000
O       18.94500000       0.00000000       6.05250000
Mg      16.84000000       2.10500000       8.15750000
O       18.94500000       2.10500000       8.15750000
Mg      18.94500000       0.00000000       8.15750000
O       16.84000000       0.00000000       8.15750000
Mg      18.94500000       2.10500000       6.05250000
O       16.84000000       2.10500000       6.05250000
Mg      16.84000000       0.00000000      10.26250000
O       18.94500000       0.00000000      10.26250000
Mg      16.84000000       2.10500000      12.36750000
O       18.94500000       2.10500000      12.36750000
Mg      18.94500000       0.00000000      12.36750000
O       16.84000000       0.00000000      12.36750000
Mg      18.94500000       2.10500000      10.26250000
O       16.84000000       2.10500000      10.26250000
Mg      16.84000000       4.21000000       6.05250000
O       18.94500000       4.21000000       6.05250000
Mg      16.84000000       6.31500000       8.15750000
O       18.94500000       6.31500000       8.15750000
Mg      18.94500000       4.21000000       8.15750000
O       16.84000000       4.21000000       8.15750000
Mg      18.94500000       6.31500000       6.05250000
O       16.84000000       6.31500000       6.05250000
Mg      16.84000000       4.21000000      10.26250000
O       18.94500000       4.21000000      10.26250000
Mg      16.84000000       6.31500000      12.36750000
O       18.94500000       6.31500000      12.36750000
Mg      18.94500000       4.21000000      12.36750000
O       16.84000000       4.21000000      12.36750000
Mg      18.94500000       6.31500000      10.26250000
O       16.84000000       6.31500000      10.26250000
Mg      16.84000000       8.42000000       6.05250000
O       18.94500000       8.42000000       6.05250000
Mg      16.84000000      10.52500000       8.15750000
O       18.94500000      10.52500000       8.15750000
Mg      18.94500000       8.42000000       8.15750000
O       16.84000000       8.42000000       8.15750000
Mg      18.94500000      10.52500000       6.05250000
O       16.84000000      10.52500000       6.05250000
Mg      16.84000000       8.42000000      10.26250000
O       18.94500000       8.42000000      10.26250000
Mg      16.84000000      10.52500000      12.36750000
O       18.94500000      10.52500000      12.36750000
Mg      18.94500000       8.42000000      12.36750000
O       16.84000000       8.42000000      12.36750000
Mg      18.94500000      10.52500000      10.26250000
O       16.84000000      10.52500000      10.26250000
Mg      16.84000000      12.63000000       6.05250000
O       18.94500000      12.63000000       6.05250000
Mg      16.84000000      14.73500000       8.15750000
O       18.94500000      14.73500000       8.15750000
Mg      18.94500000      12.63000000       8.15750000
O       16.84000000      12.63000000       8.15750000
Mg      18.94500000      14.73500000       6.05250000
O       16.84000000      14.73500000       6.05250000
Mg      16.84000000      12.63000000      10.26250000
O       18.94500000      12.63000000      10.26250000
Mg      16.84000000      14.73500000      12.36750000
O       18.94500000      14.73500000      12.36750000
Mg      18.94500000      12.63000000      12.36750000
O       16.84000000      12.63000000      12.36750000
Mg      18.94500000      14.73500000      10.26250000
O       16.84000000      14.73500000      10.26250000
Mg      16.84000000      16.84000000       6.05250000
O       18.94500000      16.84000000       6.05250000
Mg      16.84000000      18.94500000       8.15750000
O       18.94500000      18.94500000       8.15750000
Mg      18.94500000      16.84000000       8.15750000
O       16.84000000      16.84000000       8.15750000
Mg      18.94500000      18.94500000       6.05250000
O       16.84000000      18.94500000       6.05250000
Mg      16.84000000      16.84000000      10.26250000
O       18.94500000      16.84000000      10.26250000
Mg      16.84000000      18.94500000      12.36750000
O       18.94500000      18.94500000      12.36750000
Mg      18.94500000      16.84000000      12.36750000
O       16.84000000      16.84000000      12.36750000
Mg      18.94500000      18.94500000      10.26250000
O       16.84000000      18.94500000      10.26250000
O       15.59104156      15.76248563      16.19742613
H       15.83402496      15.29982536      16.99938398
H       16.07858147      16.58522347      16.23791236
O        4.36620720       2.89988314       0.21812722
H        4.85023160       2.70376252       1.02030483
H        4.56495990       2.16880721      -0.36690029
O       17.50429663       7.36567063       2.64124268
H       18.43744005       7.15345429       2.62028016
H       17.33556995       7.78934794       1.79966043
O       20.37553988      16.63603523       3.60850307
H       20.13927573      17.55673553       3.49571101
H       19.80549675      16.16572609       3.00015121
O        0.13323909       4.25271920      17.54174589
H       -0.47241228       4.93702965      17.25689950
H        0.43184868       3.84329429      16.72968962
O        1.91734825      11.34634059       1.02301053
H        2.17963297      10.53554627       0.58706200
H        2.51825975      11.42571931       1.76384534
O       12.68160121      16.33698380       1.21377624
H       13.17474664      15.59774899       0.85800762
H       12.07200464      15.94127473       1.83670336
O        5.41703720      10.65780910       2.08468575
H        4.91578149      11.06262625       1.37680325
H        6.11589676      11.28431619       2.27261133
O       17.09491368       4.16994658       1.69620823
H       17.80403151       3.61881642       1.36509000
H       16.47747170       3.55468121       2.09174048
O       13.07773205      19.48250296       1.19930664
H       13.54026225      20.10477036       1.76062735
H       12.25749579      19.30704178       1.66045488
O        6.41748533       5.19972206      17.55274393
H        6.36184403       6.14912600      17.44426328
H        7.11011158       5.07243306      18.20104805
O       10.94782838       6.73993633       1.87161217
H       10.98764211       7.50009722       1.29126561
H       10.66795718       6.02040589       1.30576775
O       10.11551998      19.86750579      15.23976033
H       10.84798952      20.14852387      15.78816624
H       10.31724247      18.95866424      15.01716895
O        8.17144819      18.93982686       3.47247996
H        8.47660079      18.04772128       3.63759014
H        8.87409650      19.49900931       3.80388934
O        0.25328951      12.01059454      15.14341186
H       -0.46091757      11.75466503      15.72705574
H        0.52187720      11.19482867      14.72077900
O        9.57592066       3.89439257      17.14124905
H        9.31824141       2.97253025      17.13948279
H        8.84515498       4.34703622      17.56235127
O       16.09074403       9.74115886       0.01681873
H       16.24309140       9.92696839       0.94336983
H       15.69782253       8.86836117       0.00852877
O        7.36103694      15.15885608       2.51361932
H        7.11598940      14.89808065       1.62582446
H        7.26979971      14.35957520       3.03232702
O       19.21092529       6.82820669       0.91256725
H       19.95555934       7.40331191       1.08865233
H       19.58804920       5.94885363       0.88522525
O        1.98198469      16.72756854       3.03298313
H        1.96518155      17.29648843       3.80258020
H        1.16246776      16.91740089       2.57626931
O       12.58662500       5.34909075       0.69469183
H       13.45602935       5.12158418       0.36513352
H       12.59370469       6.30462032       0.75077178
O        6.59694289      20.25458107      15.43311299
H        6.09293309      20.59151945      16.17384134
H        7.00473383      21.03008143      15.04770725
O       15.42343170       6.45365169       3.97302059
H       15.98694973       6.37973546       3.20281564
H       15.78180334       7.19412284       4.46241214
O        4.00415584       1.84755524       3.43554622
H        3.73325943       2.73065812       3.18459547
H        4.26122937       1.43234692       2.61229226
O        4.42005564      12.38278936      16.13486224
H        3.56729756      12.67702622      15.81476826
H        4.25773682      12.11596893      17.03967786
O       17.90828008      12.30936862       2.72323635
H       18.41329953      12.29774960       3.53628751
H       18.49671018      11.93121366       2.06979876
O        7.34276265      18.18862700       0.86219012
H        6.74745733      18.84765531       0.50508355
H        8.19393888      18.40163074       0.47961949
O        4.92784685       5.98732461       3.53106845
H        5.26927456       6.19235438       2.66065375
H        4.35686501       5.23158211       3.39299292
O        1.98202627      19.38400397      15.86848405
H        2.75738903      18.82435444      15.91134229
H        2.12037386      20.03856533      16.55305779
O       19.81874967       1.19126285       0.38731138
H       19.80597787       0.32385148       0.79186822
H       20.73264837       1.46985674       0.44567618
O       16.90683859       5.75857499      14.97145747
H       17.16141473       5.54205990      15.86842126
H       16.81338321       4.91068043      14.53720782
O       13.65358120       8.70812069      15.55094564
H       13.30324441       8.75914795      16.44026684
H       13.96230048       9.59454574      15.36339599
O       15.03593852      11.01739516       3.26708924
H       15.74625384      11.61519870       3.50014482
H       15.43460483      10.39756049       2.65626849
O        1.07450970       6.90683369      14.50795959
H        1.39372854       7.79175575      14.33119951
H        1.66122761       6.33640488      14.01136629
O        1.83874231       8.13122436       1.79870911
H        2.06559642       8.51605695       2.64527449
H        2.62797214       8.23740238       1.26760241
O       12.26646039      10.95664127      17.85449321
H       12.46432186      11.41678318      17.03880204
H       11.32747956      11.09024224      17.98371251
O        0.39048311       7.66338501      17.63002066
H       -0.34701814       7.95382246      18.16664887
H        0.01041556       7.02767736      17.02367398
O       13.09121987       1.52135722      18.00744983
H       12.35292848       1.04707115      17.62507515
H       13.86501199       1.12005076      17.61193660
O        3.86711774      15.03035899      17.45588247
H        2.96520409      15.28792829      17.26498547
H        4.30135102      15.84546307      17.70743497
O       19.62457767      20.02765750      17.02123387
H       19.31588713      19.90323885      17.91870921
H       19.84834626      20.95698181      16.97107625
O       13.99354625      12.79210947       2.00491370
H       13.25870340      13.05628302       1.45133429
H       13.71041809      11.96887835       2.40285945
O       16.86565422      18.90382913      16.04999038
H       16.78804954      18.16218408      15.44984708
H       17.42544278      19.52833446      15.58862100
O        6.87819960       2.94436382      14.99170489
H        7.24054873       2.26075946      15.55528277
H        5.94816852       2.72921719      14.92109357
O        7.31915587       7.10166625      15.97071432
H        7.89025802       7.21840944      15.21147444
H        7.84385927       7.39962842      16.71377335
O        4.50437428      17.37197754      14.83103046
H        5.42271172      17.10769891      14.88621201
H        4.53184708      18.26486583      14.48718809
O        0.33157838      14.40789959       0.86171919
H       -0.31959638      14.25175485       1.54569440
H       -0.16155503      14.35068775       0.04331948
O        9.53440152      15.86181664      18.15718005
H        8.63080090      15.57974012      18.29920325
H        9.91116722      15.91159254      19.03570257
O       12.45709985      11.88000262      14.68756266
H       11.90608047      11.40404178      15.30890859
H       13.31407967      11.45902729      14.75536541
O       12.74717113       8.41477922       0.58651719
H       13.45595135       8.85921728       0.12139651
H       12.09315232       9.09750004       0.73612841
O        4.62620708      18.88181345       2.65966827
H        4.09061869      18.10898845       2.48045214
H        5.50641584      18.53518961       2.80566932
O        5.11558529       6.78033722      14.69622151
H        5.60376875       7.28356351      14.04455284
H        4.57396125       7.42985905      15.14454799
O       17.67888855      16.16426408       0.14074503
H       17.05164607      16.49745861      -0.50095593
H       18.43281277      16.74921775       0.06551657
O        9.18062132       3.60872451       1.32024167
H        8.61491812       3.59644710       0.54819180
H        9.31703078       2.68538016       1.53251393
O       16.93678574      12.29798416      17.49568940
H       16.43830251      12.81478439      16.86270927
H       16.28507058      12.00492628      18.13256950
O        1.10494729      19.74668772       3.29052993
H        0.62066001      19.34677013       4.01286198
H        1.58487324      20.46965100       3.69454358
O       10.69500361       8.19823821      16.33324822
H       11.16280460       9.00200358      16.10663115
H       10.65404729       7.70523569      15.51379539
O        6.83005826       1.93148432      18.01278287
H        7.39207976       1.73483037      18.76224328
H        7.11471536       2.79719893      17.71996825
O       11.85133372       0.90354123       1.72379043
H       11.23356328       0.71570177       2.43040762
H       11.64212440       1.79762681       1.45346791
O       11.37400431       5.83840147      16.65586985
H       11.84076397       6.65434737      16.47531640
H       11.11428044       5.51458613      15.79336247
O       17.04150112      20.97712892       0.82639490
H       17.86670328      20.60406456       1.13638881
H       16.83172337      20.47469451       0.03913078
O        2.94563177       2.41179026      16.16743077
H        3.85432604       2.13066047      16.06032055
H        2.90233940       2.74790171      17.06263282
O        7.42734450      16.52522197      15.50945882
H        7.85193306      16.78186025      16.32805102
H        8.04680178      16.78291584      14.82674484
O        2.53593134       5.49885406       2.05941771
H        2.74963512       4.58607349       2.25279344
H        1.99705399       5.45699290       1.26942360
O        2.73029580      20.72469537       1.78521343
H        2.74882488      19.76804826       1.75847734
H        2.97026209      20.99424647       0.89865254
O       20.87608855       8.97831671       3.75772200
H       20.03750095       9.40027831       3.94467407
H       20.77615793       8.62739064       2.87279455
O       17.88329606      17.94080694       3.13500996
H       18.51881586      18.10884603       3.83078959
H       18.41649470      17.72422934       2.37014056
O        8.72745117      12.07859360       2.18848417
H        8.59433281      12.19385473       1.24761956
H        8.08248703      12.65751565       2.59481206
O        0.56635058       1.06888289       2.71092360
H        0.71371997       1.61494264       1.93869769
H        0.41876192       0.19089213       2.35938178
O        7.83758695       9.22802127       0.42311689
H        8.25328291       8.93009707      -0.38599983
H        7.05391486       8.68445986       0.50454709
O        3.58515061      15.30703287       1.54858583
H        3.68319332      15.38891185       0.59994718
H        2.92216360      14.62623587       1.66345755
O        8.96251989      10.88396023      15.64481631
H        8.40263031      10.22675452      16.05813961
H        8.41631119      11.26719745      14.95850943
O        5.23110282      19.50941309      17.70911958
H        5.60266507      20.38166695      17.84082586
H        4.70447890      19.35205484      18.49278882
O       17.78645760      15.07275046       2.51699887
H       17.33020507      14.57452559       1.83888571
H       17.17273630      15.76624714       2.75915662
O       19.23787715      13.36927394      17.23399910
H       19.89908255      13.98862173      16.92505320
H       18.81691910      13.04969225      16.43594290
O       17.68321545       4.74326747      17.28594055
H       16.73646121       4.60261171      17.29614867
H       18.05707802       3.86326708      17.33130498
O       15.46581753       5.81911385      17.65047050
H       15.24223820       4.93660196      17.35480705
H       16.27359846       6.03142155      17.18287319
O        3.21623321       5.16220255      15.98605202
H        3.27897092       4.48159629      15.31592446
H        3.27440921       5.98434355      15.49929584
O       10.10246096      13.26868032      15.04725758
H        9.28721578      12.83750790      14.79094241
H       10.29543644      12.91937228      15.91730137
O       20.28368932       9.97998185       0.15639859
H       19.44672195      10.44105417       0.10045431
H       20.67049245      10.28355737       0.97765195
O       14.42899930      17.58736337       2.49346599
H       13.56855994      17.32480210       2.16645297
H       14.94151062      16.77893602       2.49650120
O        6.08881252      15.92765986      17.59838183
H        5.77146275      16.13970119      16.72056668
H        6.71547198      15.21709869      17.46188063
O       10.62908349      15.81357696       3.07189342
H       10.85703787      15.34185311       3.87298345
H        9.90727865      16.38750053       3.32848912
O       13.23728662       4.03985962       3.35213857
H       13.56583745       4.43405955       4.16015627
H       13.95789977       4.13358000       2.72910966
O       19.65859506       2.54712727       3.71306140
H       20.00118457       1.68094656       3.49261811
H       19.42766944       2.93572913       2.86932341
O       19.13921730       3.23070551      15.50163415
H       20.01598711       3.21766756      15.88547859
H       18.73853693       4.02909803      15.84551854
O        6.00283253       9.03731333      15.40714196
H        6.19725234       8.25466205      15.92278695
H        5.14676280       9.32634203      15.72311486
O       13.40296429       2.91618229      15.28401785
H       13.92911591       2.11717439      15.25266988
H       12.74814869       2.79949004      14.59566379
O        6.63288707       0.78236466       2.66060284
H        6.36756288      -0.12684461       2.52213469
H        5.81195940       1.27461414       2.66038566
O       18.52249376       8.57740724      14.67344000
H       17.69771563       9.05926911      14.73493814
H       19.19946390       9.25053171      14.74305832
O       12.97190857       6.98787585       3.25453215
H       12.86616121       7.91231354       3.47917476
H       13.54360295       6.63864033       3.93822209
O        0.49250945       1.95584218      16.79356881
H        1.43576938       2.10463591      16.85954595
H        0.41032007       1.17713227      16.24303487
O       14.95117691       2.18847859       2.20515098
H       14.45391165       1.63569707       2.80797076
H       15.86129792       1.91815340       2.32695361
O       13.05648434      16.83794729      16.49046295
H       13.38938563      17.71305474      16.68944919
H       13.77351697      16.24915176      16.72586873
O       10.83504508      19.24538752       3.11717735
H       11.67481118      18.78653375       3.13903953
H       10.80717976      19.73420795       3.93967960
O       19.33249365      18.73527251       0.98340112
H       19.91552062      19.48750633       0.88114814
H       18.70248580      19.00881568       1.65010652
O       18.24149154       0.31199130       3.66499977
H       19.16384317       0.06771416       3.74134113
H       18.07426475       0.86048508       4.43143412
O        0.49481053      16.98612509      16.54163366
H        0.32437837      16.05864255      16.70583125
H        0.59158610      17.04778186      15.59133646
O        6.78974380      13.12318792      14.84456440
H        7.15854419      13.47235496      14.03320721
H        6.11885980      12.50424127      14.55637776
O        3.21360401      11.15576282       3.93930229
H        3.50575634      11.33848396       3.04627830
H        2.25806916      11.18189121       3.88927926
O        3.76319033       0.26599512      17.12295901
H        4.62446384       0.48341497      17.47956580
H        3.29275406       1.09945855      17.10682653
O        7.29707028       7.88114344       3.78764136
H        8.14860309       7.59240971       4.11590427
H        7.02944962       7.19384253       3.17753606
O       14.78353908      20.96905010      15.53362602
H       14.89085770      20.15692031      16.02876211
H       14.60644032      21.63409943      16.19889082
O       13.14245025       1.23314991       3.80976916
H       13.77207017       1.12797608       4.52303563
H       12.46555676       1.80627759       4.16972987
O       20.67991638      12.07667258       2.56491643
H       21.18236679      11.26267167       2.53059525
H       20.19950386      12.09723569       1.73726143
O       20.62808579       5.11013893      15.09741690
H       20.79040983       5.82987706      14.48761383
H       21.47191816       4.96248966      15.52447481
O       13.68301337      13.42377195      17.84744499
H       14.58108957      13.74754417      17.77771318
H       13.43486442      13.20893118      16.94828016
O       11.54816348      13.43028035       1.57211407
H       11.32002488      14.05841281       2.25741271
H       11.55918847      13.94733582       0.76665523
O        5.56231445       8.36287346      18.38813367
H        5.59946691       9.31925613      18.40168773
H        4.76443599       8.16060044      17.89955673
O        8.46895093       6.09935366       0.32259510
H        8.35910639       6.99348786      -0.00096330
H        8.96807070       6.19719067       1.13348302
O       18.14920085      16.77990519      16.21770802
H       18.51001076      16.63152471      15.34361919
H       18.86067440      17.19726455      16.70335028
O        6.74313564      12.30496542       0.09688103
H        5.88181092      12.69761338      -0.04517231
H        7.35354933      13.04051382       0.04593491
O       10.10354421      19.97880149      18.05422072
H       10.68783680      19.39538151      17.57001505
H        9.47826774      19.39261158      18.48041617
O       16.52941026       2.54278007      14.81628165
H       16.34442211       2.43478867      15.74920666
H       17.13955376       1.83494409      14.60909819
624
Lattice="18.852 0.0 0.0 0.0 18.852 0.0 0.0 0.0 19.766" Properties=species:S:1:pos:R:3:spacegroup_kinds:I:1 spacegroup="P -3 m 1" unit_cell=conventional system=Brucite size=10 n_waters=148 time_s=0.31 pbc="T T T"
Mg       0.00000000       0.00000000       9.88300000        0
O        1.04733333       2.09466667      10.93914560        1
O        2.09466667       1.04733333       8.82685440        1
H        1.04733333       2.09466667      11.93380980        2
H        2.09466667       1.04733333       7.83219020        2
Mg       0.00000000       3.14200000       9.88300000        0
O        1.04733333       5.23666667      10.93914560        1
O        2.09466667       4.18933333       8.82685440        1
H        1.04733333       5.23666667      11.93380980        2
H        2.09466667       4.18933333       7.83219020        2
Mg       3.14200000       0.00000000       9.88300000        0
O        4.18933333       2.09466667      10.93914560        1
O        5.23666667       1.04733333       8.82685440        1
H        4.18933333       2.09466667      11.93380980        2
H        5.23666667       1.04733333       7.83219020        2
Mg       3.14200000       3.14200000       9.88300000        0
O        4.18933333       5.23666667      10.93914560        1
O        5.23666667       4.18933333       8.82685440        1
H        4.18933333       5.23666667      11.93380980        2
H        5.23666667       4.18933333       7.83219020        2
Mg       0.00000000       6.28400000       9.88300000        0
O        1.04733333       8.37866667      10.93914560        1
O        2.09466667       7.33133333       8.82685440        1
H        1.04733333       8.37866667      11.93380980        2
H        2.09466667       7.33133333       7.83219020        2
Mg       0.00000000       9.42600000       9.88300000        0
O        1.04733333      11.52066667      10.93914560        1
O        2.09466667      10.47333333       8.82685440        1
H        1.04733333      11.52066667      11.93380980        2
H        2.09466667      10.47333333       7.83219020        2
Mg       3.14200000       6.28400000       9.88300000        0
O        4.18933333       8.37866667      10.93914560        1
O        5.23666667       7.33133333       8.82685440        1
H        4.18933333       8.37866667      11.93380980        2
H        5.23666667       7.33133333       7.83219020        2
Mg       3.14200000       9.42600000       9.88300000        0
O        4.18933333      11.52066667      10.93914560        1
O        5.23666667      10.47333333       8.82685440        1
H        4.18933333      11.52066667      11.93380980        2
H        5.23666667      10.47333333       7.83219020        2
Mg       0.00000000      12.56800000       9.88300000        0
O        1.04733333      14.66266667      10.93914560        1
O        2.09466667      13.61533333       8.82685440        1
H        1.04733333      14.66266667      11.93380980        2
H        2.09466667      13.61533333       7.83219020        2
Mg       0.00000000      15.71000000       9.88300000        0
O        1.04733333      17.80466667      10.93914560        1
O        2.09466667      16.75733333       8.82685440        1
H        1.04733333      17.80466667      11.93380980        2
H        2.09466667      16.75733333       7.83219020        2
Mg       3.14200000      12.56800000       9.88300000        0
O        4.18933333      14.66266667      10.93914560        1
O        5.23666667      13.61533333       8.82685440        1
H        4.18933333      14.66266667      11.93380980        2
H        5.23666667      13.61533333       7.83219020        2
Mg       3.14200000      15.71000000       9.88300000        0
O        4.18933333      17.80466667      10.93914560        1
O        5.23666667      16.75733333       8.82685440        1
H        4.18933333      17.80466667      11.93380980        2
H        5.23666667      16.75733333       7.83219020        2
Mg       6.28400000       0.00000000       9.88300000        0
O        7.33133333       2.09466667      10.93914560        1
O        8.37866667       1.04733333       8.82685440        1
H        7.33133333       2.09466667      11.93380980        2
H        8.37866667       1.04733333       7.83219020        2
Mg       6.28400000       3.14200000       9.88300000        0
O        7.33133333       5.23666667      10.93914560        1
O        8.37866667       4.18933333       8.82685440        1
H        7.33133333       5.23666667      11.93380980        2
H        8.37866667       4.18933333       7.83219020        2
Mg       9.42600000       0.00000000       9.88300000        0
O       10.47333333       2.09466667      10.93914560        1
O       11.52066667       1.04733333       8.82685440        1
H       10.47333333       2.09466667      11.93380980        2
H       11.52066667       1.04733333       7.83219020        2
Mg       9.42600000       3.14200000       9.88300000        0
O       10.47333333       5.23666667      10.93914560        1
O       11.52066667       4.18933333       8.82685440        1
H       10.47333333       5.23666667      11.93380980        2
H       11.52066667       4.18933333       7.83219020        2
Mg       6.28400000       6.28400000       9.88300000        0
O        7.33133333       8.37866667      10.93914560        1
O        8.37866667       7.33133333       8.82685440        1
H        7.33133333       8.37866667      11.93380980        2
H        8.37866667       7.33133333       7.83219020        2
Mg       6.28400000       9.42600000       9.88300000        0
O        7.33133333      11.52066667      10.93914560        1
O        8.37866667      10.47333333       8.82685440        1
H        7.33133333      11.52066667      11.93380980        2
H        8.37866667      10.47333333       7.83219020        2
Mg       9.42600000       6.28400000       9.88300000        0
O       10.47333333       8.37866667      10.93914560        1
O       11.52066667       7.33133333       8.82685440        1
H       10.47333333       8.37866667      11.93380980        2
H       11.52066667       7.33133333       7.83219020        2
Mg       9.42600000       9.42600000       9.88300000        0
O       10.47333333      11.52066667      10.93914560        1
O       11.52066667      10.47333333       8.82685440        1
H       10.47333333      11.52066667      11.93380980        2
H       11.52066667      10.47333333       7.83219020        2
Mg       6.28400000      12.56800000       9.88300000        0
O        7.33133333      14.66266667      10.93914560        1
O        8.37866667      13.61533333       8.82685440        1
H        7.33133333      14.66266667      11.93380980        2
H        8.37866667      13.61533333       7.83219020        2
Mg       6.28400000      15.71000000       9.88300000        0
O        7.33133333      17.80466667      10.93914560        1
O        8.37866667      16.75733333       8.82685440        1
H        7.33133333      17.80466667      11.93380980        2
H        8.37866667      16.75733333       7.83219020        2
Mg       9.42600000      12.56800000       9.88300000        0
O       10.47333333      14.66266667      10.93914560        1
O       11.52066667      13.61533333       8.82685440        1
H       10.47333333      14.66266667      11.93380980        2
H       11.52066667      13.61533333       7.83219020        2
Mg       9.42600000      15.71000000       9.88300000        0
O       10.47333333      17.80466667      10.93914560        1
O       11.52066667      16.75733333       8.82685440        1
H       10.47333333      17.80466667      11.93380980        2
H       11.52066667      16.75733333       7.83219020        2
Mg      12.56800000       0.00000000       9.88300000        0
O       13.61533333       2.09466667      10.93914560        1
O       14.66266667       1.04733333       8.82685440        1
H       13.61533333       2.09466667      11.93380980        2
H       14.66266667       1.04733333       7.83219020        2
Mg      12.56800000       3.14200000       9.88300000        0
O       13.61533333       5.23666667      10.93914560        1
O       14.66266667       4.18933333       8.82685440        1
H       13.61533333       5.23666667      11.93380980        2
H       14.66266667       4.18933333       7.83219020        2
Mg      15.71000000       0.00000000       9.88300000        0
O       16.75733333       2.09466667      10.93914560        1
O       17.80466667       1.04733333       8.82685440        1
H       16.75733333       2.09466667      11.93380980        2
H       17.80466667       1.04733333       7.83219020        2
Mg      15.71000000       3.14200000       9.88300000        0
O       16.75733333       5.23666667      10.93914560        1
O       17.80466667       4.18933333       8.82685440        1
H       16.75733333       5.23666667      11.93380980        2
H       17.80466667       4.18933333       7.83219020        2
Mg      12.56800000       6.28400000       9.88300000        0
O       13.61533333       8.37866667      10.93914560        1
O       14.66266667       7.33133333       8.82685440        1
H       13.61533333       8.37866667      11.93380980        2
H       14.66266667       7.33133333       7.83219020        2
Mg      12.56800000       9.42600000       9.88300000        0
O       13.61533333      11.52066667      10.93914560        1
O       14.66266667      10.47333333       8.82685440        1
H       13.61533333      11.52066667      11.93380980        2
H       14.66266667      10.47333333       7.83219020        2
Mg      15.71000000       6.28400000       9.88300000        0
O       16.75733333       8.37866667      10.93914560        1
O       17.80466667       7.33133333       8.82685440        1
H       16.75733333       8.37866667      11.93380980        2
H       17.80466667       7.33133333       7.83219020        2
Mg      15.71000000       9.42600000       9.88300000        0
O       16.75733333      11.52066667      10.93914560        1
O       17.80466667      10.47333333       8.82685440        1
H       16.75733333      11.52066667      11.93380980        2
H       17.80466667      10.47333333       7.83219020        2
Mg      12.56800000      12.56800000       9.88300000        0
O       13.61533333      14.66266667      10.93914560        1
O       14.66266667      13.61533333       8.82685440        1
H       13.61533333      14.66266667      11.93380980        2
H       14.66266667      13.61533333       7.83219020        2
Mg      12.56800000      15.71000000       9.88300000        0
O       13.61533333      17.80466667      10.93914560        1
O       14.66266667      16.75733333       8.82685440        1
H       13.61533333      17.80466667      11.93380980        2
H       14.66266667      16.75733333       7.83219020        2
Mg      15.71000000      12.56800000       9.88300000        0
O       16.75733333      14.66266667      10.93914560        1
O       17.80466667      13.61533333       8.82685440        1
H       16.75733333      14.66266667      11.93380980        2
H       17.80466667      13.61533333       7.83219020        2
Mg      15.71000000      15.71000000       9.88300000        0
O       16.75733333      17.80466667      10.93914560        1
O       17.80466667      16.75733333       8.82685440        1
H       16.75733333      17.80466667      11.93380980        2
H       17.80466667      16.75733333       7.83219020        2
O        9.03632895       7.75603409      15.15348986        0
H        9.36819921       7.41511612      14.32290639        0
H        9.26753861       7.08646787      15.79727166        0
O       13.96305537      14.11659758      17.38101655        0
H       14.20603877      13.65393731      18.18297440        0
H       14.45059528      14.93933542      17.42150278        0
O        8.06459236      12.16043756      15.56883419        0
H        8.27292289      13.07313639      15.76836133        0
H        8.85865523      11.81704273      15.15922952        0
O        3.01016920       6.69436343       4.95994475        0
H        2.23452415       6.73015703       4.40018995        0
H        3.74650384       6.67393496       4.34869536        0
O        3.91029635       2.59708299       0.23406637        0
H        4.39432075       2.40096237       1.03624398        0
H        4.10904905       1.86600706      -0.35096114        0
O       15.67653207       6.59656165       2.83424554        0
H       16.60967549       6.38434531       2.81328302        0
H       15.50780539       7.02023896       1.99266329        0
O       15.24570990      11.49218186       4.24662983        0
H       15.48898397      12.11411120       3.56087954        0
H       16.07299326      11.27051580       4.67406198        0
O       18.24796569      14.89893283       3.87218630        0
H       18.01170154      15.81963313       3.75939424        0
H       17.67792256      14.42862369       3.26383445        0
O        0.11932652       3.80865855      18.82356945        0
H       -0.48632484       4.49296900      18.53872306        0
H        0.41793612       3.39923364      18.01151318        0
O        1.71714248      10.16157781       1.09776472        0
H        1.97942720       9.35078348       0.66181619        0
H        2.31805398      10.24095653       1.83859953        0
O       18.19190286       4.16469573       5.21247504        0
H       17.67085001       3.56417491       5.74549521        0
H       19.09856611       3.97395290       5.45291373        0
O        7.21506125       5.55872115      15.92788094        0
H        6.77757262       4.72677572      16.10871886        0
H        6.92050374       5.79876902      15.04933400        0
O        6.36958111       8.91808153       6.34072522        0
H        7.15705915       9.43240690       6.16301877        0
H        6.59448214       8.03059472       6.06140725        0
O       11.35741311      14.63110778       1.30247020        0
H       11.85055854      13.89187296       0.94670158        0
H       10.74781655      14.23539870       1.92539732        0
O        4.85140073       9.54494143       2.23701947        0
H        4.35014502       9.94975858       1.52913697        0
H        5.55026029      10.17144852       2.42494504        0
O       15.30989609       3.73452888       1.82015482        0
H       16.01901392       3.18339872       1.48903660        0
H       14.69245411       3.11926351       2.21568708        0
O        4.80425923      15.47384535      15.01186534        0
H        5.18009614      15.99398930      14.30163388        0
H        4.92701737      16.01164604      15.79412661        0
O       11.71218074      17.44817795       1.28694327        0
H       12.17471094      18.07044535       1.84826398        0
H       10.89194449      17.27271677       1.74809151        0
O        5.74738401       4.65677721      18.83537115        0
H        5.69174271       5.60618115      18.72689050        0
H        6.44001026       4.52948821      19.48367527        0
O        9.80467746       6.03616530       2.00837601        0
H        9.84449119       6.79632620       1.42802945        0
H        9.52480627       5.31663487       1.44253159        0
O        9.05927708      17.79297953      16.35337148        0
H        9.79174663      18.07399761      16.90177739        0
H        9.26099958      16.88413799      16.13078010        0
O        7.31820148      16.96216703       3.72622361        0
H        7.62335409      16.07006145       3.89133379        0
H        8.02084979      17.52134948       4.05763299        0
O        0.22684152      10.75647165      16.24998257        0
H       -0.48736556      10.50054214      16.83362644        0
H        0.49542920       9.94070578      15.82734970        0
O        2.99062734       1.29832976       3.77138881        0
H        2.61079345       1.30835702       4.64994303        0
H        3.62110175       2.01855577       3.77427753        0
O        8.57602167       3.48774768      18.39380720        0
H        8.31834242       2.56588537      18.39204094        0
H        7.84525599       3.94039134      18.81490942        0
O       14.41057988       8.72400603       0.01804773        0
H       14.56292724       8.90981555       0.94459883        0
H       14.01765838       7.85120834       0.00975776        0
O        6.59241180      13.57599786       2.69729639        0
H        6.34736426      13.31522243       1.80950153        0
H        6.50117457      12.77671697       3.21600409        0
O       17.20495789       6.11521865       0.97925104        0
H       17.94959194       6.69032387       1.15533613        0
H       17.58208180       5.23586558       0.95190904        0
O        1.77502971      14.98090842       3.25461154        0
H        1.75822657      15.54982831       4.02420861        0
H        0.95551278      15.17074076       2.79789772        0
O       12.29961506      12.37966259      12.84313646        0
H       11.49141301      12.88080610      12.95220741        0
H       12.77514387      12.50959500      13.66363739        0
O        5.90810296      18.13963717      16.56085295        0
H        5.40409316      18.47657555      17.30158130        0
H        6.31589390      18.91513752      16.17544721        0
O        6.72374083      16.89744197       6.14660476        0
H        5.99551660      16.68148490       5.56412398        0
H        7.50738998      16.67859428       5.64239098        0
O       13.81294701       5.77977395       4.26334012        0
H       14.37646503       5.70585772       3.49313517        0
H       14.17131864       6.52024510       4.75273167        0
O        3.95852204      11.08980261      17.31388095        0
H        3.10576396      11.38403947      16.99378696        0
H        3.79620322      10.82298219      18.21869656        0
O        6.57604568      16.28940600       0.92519272        0
H        5.98074036      16.94843431       0.56808615        0
H        7.42722190      16.50240973       0.54262209        0
O        2.30816707       7.15253110      14.44445130        0
H        2.79490046       7.20661704      13.62201762        0
H        2.95251750       6.85202396      15.08534116        0
O        1.77506694      17.35996403      17.02803777        0
H        2.55042971      16.80031450      17.07089601        0
H        1.91341454      18.01452539      17.71261151        0
O       11.67814245       5.06764351      14.37594429        0
H       11.12894835       5.68820653      14.85502592        0
H       11.99159418       5.56037772      13.61752959        0
O       17.74931443       1.06687350       0.41561328        0
H       17.73654264       0.19946214       0.82017013        0
H       18.66321313       1.34546740       0.47397808        0
O       15.57130633       7.17211385      15.52611671        0
H       15.40339040       7.01353990      16.45503564        0
H       16.52182740       7.26831446      15.46706611        0
O        3.60896939       9.88972768       4.80443531        0
H        3.68875638       9.74275759       5.74691378        0
H        3.92853581      10.78236011       4.67284320        0
O       12.22790085       7.79883568      16.68729596        0
H       11.87756406       7.84986295      17.57661716        0
H       12.53662012       8.68526074      16.49974631        0
O        0.01019011       4.30721166      14.49044050        0
H       -0.47904301       3.61353303      14.93281223        0
H        0.12623536       3.98622609      13.59616225        0
O        1.64674442       7.28217775       1.93014573        0
H        1.87359853       7.66701034       2.77671110        0
H        2.43597425       7.38835577       1.39903902        0
O       10.98562048       9.81257013      19.15917008        0
H       11.18348195      10.27271204      18.34347890        0
H       10.04663966       9.94617110      19.28838937        0
O       13.91658263       3.16424795       5.70343578        0
H       13.52098522       3.77530411       6.32500226        0
H       13.97338827       3.65751489       4.88508825        0
O       10.09284704      15.03170428       6.24390500        0
H       10.69133440      14.37023482       6.59104025        0
H       10.62300414      15.53389805       5.62506196        0
O        0.34970962       6.86318927      18.91829470        0
H       -0.38779163       7.15362672      19.45492291        0
H       -0.03035792       6.22748163      18.31194802        0
O       11.72426019       1.36250006      19.32330365        0
H       10.98596880       0.88821400      18.94092897        0
H       12.49805231       0.96119360      18.92779042        0
O        2.43340258      13.44298928      14.37701744        0
H        2.21329013      14.37401972      14.40807669        0
H        3.15187951      13.34527141      15.00189659        0
O       16.41783325       9.98253550       1.77330287        0
H       16.46980631      10.73570898       1.18486396        0
H       17.25529874       9.53260092       1.66175790        0
O        7.18182638       9.58920982      15.18054783        0
H        7.50615282       8.95289049      14.54325519        0
H        6.69599951       9.06494766      15.81722143        0
O        3.46332084      13.46091818      18.73143176        0
H        2.56140719      13.71848748      18.54053475        0
H        3.89755411      14.27602225      18.98298425        0
O       17.57541749      17.93640851      18.26502218        0
H       17.26672696      17.81198986      19.16249753        0
H       17.79918609      18.86573282      18.21486456        0
O       12.53236741      11.45638231       2.15141825        0
H       11.79752456      11.72055587       1.59783884        0
H       12.24923924      10.63315120       2.54936400        0
O       15.10457546      16.92992811      17.22280726        0
H       15.02697078      16.18828306      16.62266397        0
H       15.66436402      17.55443344      16.76143788        0
O       16.28564336      12.18160419      14.04812795        0
H       17.10196889      11.84346417      13.68001682        0
H       16.51615780      13.04553635      14.38976540        0
O        0.13856446       1.86835842       4.52144944        0
H        0.88856876       1.83136386       3.92785295        0
H       -0.05162403       0.95263864       4.72520777        0
O        6.15999140       2.63691908      16.08718995        0
H        6.52234052       1.95331472      16.65076783        0
H        5.22996032       2.42177246      16.01657863        0
O        0.29695561      12.90345478       0.92468738        0
H       -0.35421915      12.74731004       1.60866259        0
H       -0.19617780      12.84624294       0.10628767        0
O        8.53883789      14.20555664      19.48397508        0
H        7.63523726      13.92348012      19.62599827        0
H        8.91560358      14.25533254      20.36249759        0
O        5.02228583       5.88922434       1.72113166        0
H        5.34399351       5.68779788       2.59985993        0
H        5.09048532       5.06162747       1.24503913        0
O        4.16993555       1.83119167       6.11128190        0
H        4.98555616       2.00402973       5.64104593        0
H        4.25376031       2.32529582       6.92679790        0
O       12.42886104       0.69120386      13.82266801        0
H       12.00408171       0.55147297      12.97634087        0
H       12.99556967      -0.07188783      13.93564693        0
O       11.15635375      10.63951588      15.76082321        0
H       10.60533437      10.16355504      16.38216914        0
H       12.01333356      10.21854056      15.82862596        0
O       11.41613635       7.53612436       0.62937561        0
H       12.12491657       7.98056242       0.16425493        0
H       10.76211754       8.21884518       0.77898684        0
O        4.14314755      16.91021127       2.85401754        0
H        3.60755916      16.13738626       2.67480141        0
H        5.02335630      16.56358743       3.00001858        0
O        7.61505882      11.89779530       6.00883520        0
H        7.37739651      11.07356079       6.43355385        0
H        6.79306476      12.38516730       5.95382479        0
O       16.47088179      16.17713594       6.77588670        0
H       16.46088174      16.06180109       7.72606021        0
H       17.31307509      15.81607423       6.49916169        0
O       10.03520324      18.34831921       6.24856582        0
H        9.83643147      19.19584435       6.64658939        0
H        9.31969551      17.77772068       6.52909720        0
O        4.58142583       6.07234761      15.77011478        0
H        5.06960930       6.57557390      15.11844612        0
H        4.03980180       6.72186944      16.21844127        0
O       15.83289344      14.47642311       0.15102966        0
H       15.20565096      14.80961764      -0.49067130        0
H       16.58681766      15.06137678       0.07580119        0
O        8.22199873       3.23190853       1.41671536        0
H        7.65629553       3.21963111       0.64466549        0
H        8.35840818       2.30856418       1.62898762        0
O       12.88891655       8.68814081       6.84434762        0
H       12.47468692       9.24501386       6.18515260        0
H       13.16156424       9.29406486       7.53336948        0
O       15.16827956      11.01385261      18.77414748        0
H       14.66979634      11.53065284      18.14116735        0
H       14.51656440      10.72079473      19.41102759        0
O        0.98957084      17.68477705       3.53097799        0
H        0.50528357      17.28485946       4.25331004        0
H        1.46949679      18.40774033       3.93499164        0
O        4.98464415       8.72574612      14.25426811        0
H        4.97938259       8.45409095      15.17209577        0
H        5.87484498       9.04343798      14.10311852        0
O        6.11687688       1.72980249      19.32902640        0
H        6.67889838       1.53314854      20.07848681        0
H        6.40153397       2.59551710      19.03621178        0
O       16.89283382       1.93667168      14.06148583        0
H       17.54860079       1.30445454      13.76737189        0
H       16.91883057       2.63252265      13.40471537        0
O       10.61384054       0.80919521       1.84975253        0
H        9.99607010       0.62135576       2.55636973        0
H       10.40463122       1.70328080       1.57943001        0
O       10.18635293       5.22876696      17.87296001        0
H       10.65311260       6.04471286      17.69240657        0
H        9.92662906       4.90495162      17.01045264        0
O       15.26206076      18.78673798       0.88678185        0
H       16.08726292      18.41367362       1.19677575        0
H       15.05228302      18.28430357       0.09951772        0
O        2.43290974       4.61267078       3.24243090        0
H        3.13271231       5.01624279       2.72897416        0
H        1.66799441       5.16517145       3.08156020        0
O        9.01546009       2.73585269       5.20870750        0
H        9.36821281       3.61185535       5.05244901        0
H        9.77392898       2.15597303       5.14017742        0
O        2.63805463       2.15995582      17.34882935        0
H        3.54674891       1.87882602      17.24171913        0
H        2.59476227       2.49606727      18.24403140        0
O        7.15937409       3.91217037      14.17076046        0
H        6.88309193       3.35569215      13.44259016        0
H        8.06257284       4.15028989      13.96156451        0
O       15.14386904       6.56219311      18.52599821        0
H       14.30164354       7.01640864      18.50199179        0
H       14.95136173       5.68236407      18.20184758        0
O        6.65179565      14.79969048      16.64277758        0
H        7.07638421      15.05632875      17.46136978        0
H        7.27125293      15.05738435      15.96006360        0
O       14.65915244       4.06723284      14.53855997        0
H       15.42554479       4.59656847      14.75919175        0
H       13.96809683       4.70630543      14.36460534        0
O        7.91001415       8.03083072      18.91836918        0
H        7.48679041       7.33686297      19.42386129        0
H        7.46316137       8.01784464      18.07197342        0
O       18.69624805       8.04081837       4.03230907        0
H       17.85766044       8.46277997       4.21926114        0
H       18.59631742       7.68989230       3.14738162        0
O        3.75730155       4.28819830       5.61753585        0
H        3.91675289       3.43067192       5.22325724        0
H        3.34633210       4.79999801       4.92083147        0
O       14.94073096       9.02990825       3.87558538        0
H       15.79996114       8.61147718       3.92916506        0
H       14.42192415       8.44310039       3.32537827        0
O        7.81614772      10.81737038       2.34840272        0
H        7.68302936      10.93263152       1.40753811        0
H        7.17118358      11.39629244       2.75473061        0
O        2.23557395      11.83977686       5.97825149        0
H        2.42154556      12.62021595       6.50032547        0
H        3.08693304      11.57613306       5.62909323        0
O       17.72964591      10.80216402       4.56924888        0
H       17.28731449      10.46812548       3.78886884        0
H       18.00658241      11.68616440       4.32824816        0
O        3.21079616      13.70870231       1.66174525        0
H        3.30883887      13.79058129       0.71310660        0
H        2.54780915      13.02790531       1.77661697        0
O        9.99022894      14.40202881      15.25152767        0
H        9.10865681      14.76682228      15.32891082        0
H       10.53108926      15.13938012      14.96865842        0
O       12.40681027      16.61544230      18.83307649        0
H       12.38342498      17.33722179      18.20480956        0
H       12.74137212      17.00933267      19.63877530        0
O       14.87490168      17.59663379       4.53952109        0
H       15.46531123      17.98757744       5.18357968        0
H       14.00623647      17.66951297       4.93492118        0
O       18.83791601      15.30592988      15.54380797        0
H       19.57624264      14.72721909      15.35354646        0
H       18.77646823      15.31043399      16.49902299        0
O        4.68488125      17.47227818      19.00317360        0
H        5.05644350      18.34453204      19.13487987        0
H        4.15825733      17.31491993      19.78684283        0
O       11.93507128      11.82776750       4.99502064        0
H       12.66123087      12.02170941       5.58773526        0
H       11.15643890      11.86004887       5.55082759        0
O        9.42713674       8.28666529       5.62466827        0
H        9.01671844       7.59700672       5.10297898        0
H        9.01751766       8.21156629       6.48652916        0
O        7.35178500      14.37552416       6.22042386        0
H        7.73764738      13.80972583       5.55168302        0
H        6.64307488      13.85356490       6.59661573        0
O       15.92923034      13.49888322       2.70092289        0
H       15.47297781      13.00065835       2.02280973        0
H       15.31550904      14.19237989       2.94308064        0
O       16.42038802       2.02247703       5.09004423        0
H       16.59847775       1.54690781       5.90143181        0
H       16.86913647       1.51709430       4.41222054        0
O       12.19244726       9.62645795      13.78278180        0
H       12.44363073       9.29187910      12.92185457        0
H       11.95591495       8.84597494      14.28391110        0
O       15.83676853       4.24798472      18.54907171        0
H       14.89001429       4.10732896      18.55927983        0
H       16.21063110       3.36798433      18.59443614        0
O        1.27270545      18.80052417       0.55492153        0
H        1.69610876      19.62738987       0.32415196        0
H        0.65066961      18.64299765      -0.15535211        0
O       13.45584032      16.39835677      14.36894655        0
H       13.86558958      17.05664553      14.93018918        0
H       12.62780882      16.79525861      14.09864191        0
O        2.88040040       4.62317542      17.15419675        0
H        2.94313811       3.94256916      16.48406919        0
H        2.93857640       5.44531641      16.66744058        0
O        4.28346508      13.37609379       4.08452694        0
H        4.62065699      12.56026940       4.45461346        0
H        4.81378615      13.52143661       3.30103038        0
O        5.12053695      12.73709313      15.80974377        0
H        5.92077064      12.44953955      16.24925579        0
H        5.42277807      13.11418192      14.98349550        0
O        9.51921530      14.16235406       3.29636511        0
H        9.74716968      13.69063020       4.09745514        0
H        8.79741046      14.73627763       3.55296081        0
O        2.83368271      18.57163907      13.78448153        0
H        1.91742183      18.81567093      13.91542538        0
H        3.00680036      17.91718581      14.46120381        0
O       11.85507493       3.61802535       3.59708854        0
H       12.18362577       4.01222528       4.40510624        0
H       12.57568808       3.71174573       2.97405964        0
O       17.14073751       2.89336153      16.63438115        0
H       18.01750732       2.88032358      17.01822558        0
H       16.74005713       3.69175405      16.97826553        0
O        9.38426552      11.28673541       4.48994503        0
H        8.56354718      11.21646914       4.00238385        0
H        9.40484562      10.50319666       5.03937686        0
O       11.83486747      16.24437182       3.42061578        0
H       11.26012561      17.00692827       3.48703338        0
H       12.39602732      16.43161849       2.66810654        0
O        5.33193673       0.79624113      14.63831323        0
H        6.19034154       0.61965370      14.25335882        0
H        4.70805951       0.56314215      13.95080038        0
O       15.65552961      18.68347676      15.12267138        0
H       16.10112124      18.29645152      14.36908568        0
H       16.06699009      19.54098909      15.23039661        0
O        6.44295803       5.69313777       5.28671965        0
H        7.22901631       5.15545965       5.38287825        0
H        5.83473323       5.14292028       4.79320659        0
O       12.00345286       2.61168021      16.40086301        0
H       12.52960448       1.81267232      16.36951505        0
H       11.34863727       2.49498796      15.71250896        0
O        9.85348055       0.67579797      14.53620709        0
H       10.26827525       1.39104790      14.05392632        0
H        9.72133757      -0.01005669      13.88170464        0
O        5.94029392       0.70067166       2.85502040        0
H        5.67496973      -0.20853760       2.71655225        0
H        5.11936625       1.19292115       2.85480322        0
O        4.29805117       9.31498291      18.99407418        0
H        4.64269602       9.80616727      19.73985544        0
H        4.17891544       8.42547289      19.32695618        0
O        3.28932452      14.20608444       6.37417842        0
H        3.28994580      13.66834960       5.58229920        0
H        2.39054720      14.52761840       6.44522125        0
O        2.94384789       2.43067269      13.60008098        0
H        2.21052563       1.82891442      13.47218544        0
H        3.40234613       2.09039011      14.36833807        0
O        9.83525462      12.08088835       7.20387089        0
H       10.20253984      12.51412304       7.97435198        0
H        9.92657589      12.72384436       6.50066407        0
O       13.39000413       1.95996191       2.36628741        0
H       12.89273887       1.40718040       2.96910720        0
H       14.30012514       1.68963673       2.48809005        0
O        7.12990297      16.20622881      13.81460180        0
H        8.08594389      16.24406565      13.84263681        0
H        6.92294557      16.04657503      12.89378089        0
O       11.82362474       9.40604705       3.80604796        0
H       11.38980464       8.74656526       3.26464634        0
H       12.20387473       8.90940851       4.53061124        0
O       16.86372052       6.24135369      13.57373850        0
H       17.78672760       5.99055618      13.61102635        0
H       16.85406802       7.16114273      13.83855314        0
O       17.31383232      16.77897184       1.05526094        0
H       17.89685929      17.53120566       0.95300796        0
H       16.68382447      17.05251501       1.72196634        0
O       18.64616539      13.34056615      12.76454246        0
H       18.41141965      13.58626740      11.86969210        0
H       18.79475626      14.17406210      13.21112626        0
O       15.22770175      14.79742787       4.69161513        0
H       15.45889449      15.61986605       4.25990086        0
H       14.94890878      15.05738139       5.56964159        0
O       17.13248199       8.51809359      17.46001314        0
H       17.68435927       7.74587507      17.33615084        0
H       17.75081395       9.23408394      17.60580491        0
O        3.29082110       8.57093902      16.63564362        0
H        3.82663218       9.07800547      16.02570761        0
H        2.72561629       9.21967304      17.05507124        0
O        4.32944944      11.24926410      13.74780857        0
H        4.41492563      12.19296409      13.88329285        0
H        3.94914491      10.92319034      14.56345322        0
O       13.23987073      18.77950273      16.66871074        0
H       13.34718934      17.96737294      17.16384683        0
H       13.06277197      19.44455206      17.33397555        0
O       16.73136874      15.75817675      13.58231396        0
H       16.56053927      14.88130572      13.92603818        0
H       16.71923267      16.32486591      14.35364265        0
O        8.09987254       7.09181028       3.68333364        0
H        7.29871456       6.57298579       3.61123040        0
H        7.87025298       7.94144635       3.30700235        0
O       11.77014119       1.10438680       4.08815946        0
H       12.39976111       0.99921297       4.80142593        0
H       11.09324770       1.67751448       4.44812017        0
O       18.36576181       8.30688734      14.86452125        0
H       19.25467497       8.60337496      15.05986793        0
H       18.47415351       7.40401140      14.56569337        0
O        1.60090156      11.14845920       3.35240475        0
H        1.04071835      11.38770410       2.61403595        0
H        2.40038811      11.65846309       3.22221594        0
O       18.62983880      17.33946518      13.98294395        0
H       17.87430420      17.66897602      13.49630044        0
H       18.31479968      16.53846742      14.40173362        0
O       12.25425976      12.02208783      19.15160682        0
H       13.15233596      12.34586005      19.08187502        0
H       12.00611081      11.80724706      18.25244199        0
1733
Lattice="31.419999999999998 0.0 0.0 0.0 31.419999999999998 0.0 0.0 0.0 19.766" Properties=species:S:1:pos:R:3:spacegroup_kinds:I:1 spacegroup="P -3 m 1" unit_cell=conventional system=Brucite size=15 n_waters=411 time_s=0.68 pbc="T T T"
Mg       0.00000000       0.00000000       9.88300000        0
O        1.04733333       2.09466667      10.93914560        1
O        2.09466667       1.04733333       8.82685440        1
H        1.04733333       2.09466667      11.93380980        2
H        2.09466667       1.04733333       7.83219020        2
Mg       0.00000000       3.14200000       9.88300000        0
O        1.04733333       5.23666667      10.93914560        1
O        2.09466667       4.18933333       8.82685440        1
H        1.04733333       5.23666667      11.93380980        2
H        2.09466667       4.18933333       7.83219020        2
Mg       3.14200000       0.00000000       9.88300000        0
O        4.18933333       2.09466667      10.93914560        1
O        5.23666667       1.04733333       8.82685440        1
H        4.18933333       2.09466667      11.93380980        2
H        5.23666667       1.04733333       7.83219020        2
Mg       3.14200000       3.14200000       9.88300000        0
O        4.18933333       5.23666667      10.93914560        1
O        5.23666667       4.18933333       8.82685440        1
H        4.18933333       5.23666667      11.93380980        2
H        5.23666667       4.18933333       7.83219020        2
Mg       0.00000000       6.28400000       9.88300000        0
O        1.04733333       8.37866667      10.93914560        1
O        2.09466667       7.33133333       8.82685440        1
H        1.04733333       8.37866667      11.93380980        2
H        2.09466667       7.33133333       7.83219020        2
Mg       0.00000000       9.42600000       9.88300000        0
O        1.04733333      11.52066667      10.93914560        1
O        2.09466667      10.47333333       8.82685440        1
H        1.04733333      11.52066667      11.93380980        2
H        2.09466667      10.47333333       7.83219020        2
Mg       3.14200000       6.28400000       9.88300000        0
O        4.18933333       8.37866667      10.93914560        1
O        5.23666667       7.33133333       8.82685440        1
H        4.18933333       8.37866667      11.93380980        2
H        5.23666667       7.33133333       7.83219020        2
Mg       3.14200000       9.42600000       9.88300000        0
O        4.18933333      11.52066667      10.93914560        1
O        5.23666667      10.47333333       8.82685440        1
H        4.18933333      11.52066667      11.93380980        2
H        5.23666667      10.47333333       7.83219020        2
Mg       0.00000000      12.56800000       9.88300000        0
O        1.04733333      14.66266667      10.93914560        1
O        2.09466667      13.61533333       8.82685440        1
H        1.04733333      14.66266667      11.93380980        2
H        2.09466667      13.61533333       7.83219020        2
Mg       0.00000000      15.71000000       9.88300000        0
O        1.04733333      17.80466667      10.93914560        1
O        2.09466667      16.75733333       8.82685440        1
H        1.04733333      17.80466667      11.93380980        2
H        2.09466667      16.75733333       7.83219020        2
Mg       3.14200000      12.56800000       9.88300000        0
O        4.18933333      14.66266667      10.93914560        1
O        5.23666667      13.61533333       8.82685440        1
H        4.18933333      14.66266667      11.93380980        2
H        5.23666667      13.61533333       7.83219020        2
Mg       3.14200000      15.71000000       9.88300000        0
O        4.18933333      17.80466667      10.93914560        1
O        5.23666667      16.75733333       8.82685440        1
H        4.18933333      17.80466667      11.93380980        2
H        5.23666667      16.75733333       7.83219020        2
Mg       0.00000000      18.85200000       9.88300000        0
O        1.04733333      20.94666667      10.93914560        1
O        2.09466667      19.89933333       8.82685440        1
H        1.04733333      20.94666667      11.93380980        2
H        2.09466667      19.89933333       7.83219020        2
Mg       0.00000000      21.99400000       9.88300000        0
O        1.04733333      24.08866667      10.93914560        1
O        2.09466667      23.04133333       8.82685440        1
H        1.04733333      24.08866667      11.93380980        2
H        2.09466667      23.04133333       7.83219020        2
Mg       3.14200000      18.85200000       9.88300000        0
O        4.18933333      20.94666667      10.93914560        1
O        5.23666667      19.89933333       8.82685440        1
H        4.18933333      20.94666667      11.93380980        2
H        5.23666667      19.89933333       7.83219020        2
Mg       3.14200000      21.99400000       9.88300000        0
O        4.18933333      24.08866667      10.93914560        1
O        5.23666667      23.04133333       8.82685440        1
H        4.18933333      24.08866667      11.93380980        2
H        5.23666667      23.04133333       7.83219020        2
Mg       0.00000000      25.13600000       9.88300000        0
O        1.04733333      27.23066667      10.93914560        1
O        2.09466667      26.18333333       8.82685440        1
H        1.04733333      27.23066667      11.93380980        2
H        2.09466667      26.18333333       7.83219020        2
Mg       0.00000000      28.27800000       9.88300000        0
O        1.04733333      30.37266667      10.93914560        1
O        2.09466667      29.32533333       8.82685440        1
H        1.04733333      30.37266667      11.93380980        2
H        2.09466667      29.32533333       7.83219020        2
Mg       3.14200000      25.13600000       9.88300000        0
O        4.18933333      27.23066667      10.93914560        1
O        5.23666667      26.18333333       8.82685440        1
H        4.18933333      27.23066667      11.93380980        2
H        5.23666667      26.18333333       7.83219020        2
Mg       3.14200000      28.27800000       9.88300000        0
O        4.18933333      30.37266667      10.93914560        1
O        5.23666667      29.32533333       8.82685440        1
H        4.18933333      30.37266667      11.93380980        2
H        5.23666667      29.32533333       7.83219020        2
Mg       6.28400000       0.00000000       9.88300000        0
O        7.33133333       2.09466667      10.93914560        1
O        8.37866667       1.04733333       8.82685440        1
H        7.33133333       2.09466667      11.93380980        2
H        8.37866667       1.04733333       7.83219020        2
Mg       6.28400000       3.14200000       9.88300000        0
O        7.33133333       5.23666667      10.93914560        1
O        8.37866667       4.18933333       8.82685440        1
H        7.33133333       5.23666667      11.93380980        2
H        8.37866667       4.18933333       7.83219020        2
Mg       9.42600000       0.00000000       9.88300000        0
O       10.47333333       2.09466667      10.93914560        1
O       11.52066667       1.04733333       8.82685440        1
H       10.47333333       2.09466667      11.93380980        2
H       11.52066667       1.04733333       7.83219020        2
Mg       9.42600000       3.14200000       9.88300000        0
O       10.47333333       5.23666667      10.93914560        1
O       11.52066667       4.18933333       8.82685440        1
H       10.47333333       5.23666667      11.93380980        2
H       11.52066667       4.18933333       7.83219020        2
Mg       6.28400000       6.28400000       9.88300000        0
O        7.33133333       8.37866667      10.93914560        1
O        8.37866667       7.33133333       8.82685440        1
H        7.33133333       8.37866667      11.93380980        2
H        8.37866667       7.33133333       7.83219020        2
Mg       6.28400000       9.42600000       9.88300000        0
O        7.33133333      11.52066667      10.93914560        1
O        8.37866667      10.47333333       8.82685440        1
H        7.33133333      11.52066667      11.93380980        2
H        8.37866667      10.47333333       7.83219020        2
Mg       9.42600000       6.28400000       9.88300000        0
O       10.47333333       8.37866667      10.93914560        1
O       11.52066667       7.33133333       8.82685440        1
H       10.47333333       8.37866667      11.93380980        2
H       11.52066667       7.33133333       7.83219020        2
Mg       9.42600000       9.42600000       9.88300000        0
O       10.47333333      11.52066667      10.93914560        1
O       11.52066667      10.47333333       8.82685440        1
H       10.47333333      11.52066667      11.93380980        2
H       11.52066667      10.47333333       7.83219020        2
Mg       6.28400000      12.56800000       9.88300000        0
O        7.33133333      14.66266667      10.93914560        1
O        8.37866667      13.61533333       8.82685440        1
H        7.33133333      14.66266667      11.93380980        2
H        8.37866667      13.61533333       7.83219020        2
Mg       6.28400000      15.71000000       9.88300000        0
O        7.33133333      17.80466667      10.93914560        1
O        8.37866667      16.75733333       8.82685440        1
H        7.33133333      17.80466667      11.93380980        2
H        8.37866667      16.75733333       7.83219020        2
Mg       9.42600000      12.56800000       9.88300000        0
O       10.47333333      14.66266667      10.93914560        1
O       11.52066667      13.61533333       8.82685440        1
H       10.47333333      14.66266667      11.93380980        2
H       11.52066667      13.61533333       7.83219020        2
Mg       9.42600000      15.71000000       9.88300000        0
O       10.47333333      17.80466667      10.93914560        1
O       11.52066667      16.75733333       8.82685440        1
H       10.47333333      17.80466667      11.93380980        2
H       11.52066667      16.75733333       7.83219020        2
Mg       6.28400000      18.85200000       9.88300000        0
O        7.33133333      20.94666667      10.93914560        1
O        8.37866667      19.89933333       8.82685440        1
H        7.33133333      20.94666667      11.93380980        2
H        8.37866667      19.89933333       7.83219020        2
Mg       6.28400000      21.99400000       9.88300000        0
O        7.33133333      24.08866667      10.93914560        1
O        8.37866667      23.04133333       8.82685440        1
H        7.33133333      24.08866667      11.93380980        2
H        8.37866667      23.04133333       7.83219020        2
Mg       9.42600000      18.85200000       9.88300000        0
O       10.47333333      20.94666667      10.93914560        1
O       11.52066667      19.89933333       8.82685440        1
H       10.47333333      20.94666667      11.93380980        2
H       11.52066667      19.89933333       7.83219020        2
Mg       9.42600000      21.99400000       9.88300000        0
O       10.47333333      24.08866667      10.93914560        1
O       11.52066667      23.04133333       8.82685440        1
H       10.47333333      24.08866667      11.93380980        2
H       11.52066667      23.04133333       7.83219020        2
Mg       6.28400000      25.13600000       9.88300000        0
O        7.33133333      27.23066667      10.93914560        1
O        8.37866667      26.18333333       8.82685440        1
H        7.33133333      27.23066667      11.93380980        2
H        8.37866667      26.18333333       7.83219020        2
Mg       6.28400000      28.27800000       9.88300000        0
O        7.33133333      30.37266667      10.93914560        1
O        8.37866667      29.32533333       8.82685440        1
H        7.33133333      30.37266667      11.93380980        2
H        8.37866667      29.32533333       7.83219020        2
Mg       9.42600000      25.13600000       9.88300000        0
O       10.47333333      27.23066667      10.93914560        1
O       11.52066667      26.18333333       8.82685440        1
H       10.47333333      27.23066667      11.93380980        2
H       11.52066667      26.18333333       7.83219020        2
Mg       9.42600000      28.27800000       9.88300000        0
O       10.47333333      30.37266667      10.93914560        1
O       11.52066667      29.32533333       8.82685440        1
H       10.47333333      30.37266667      11.93380980        2
H       11.52066667      29.32533333       7.83219020        2
Mg      12.56800000       0.00000000       9.88300000        0
O       13.61533333       2.09466667      10.93914560        1
O       14.66266667       1.04733333       8.82685440        1
H       13.61533333       2.09466667      11.93380980        2
H       14.66266667       1.04733333       7.83219020        2
Mg      12.56800000       3.14200000       9.88300000        0
O       13.61533333       5.23666667      10.93914560        1
O       14.66266667       4.18933333       8.82685440        1
H       13.61533333       5.23666667      11.93380980        2
H       14.66266667       4.18933333       7.83219020        2
Mg      15.71000000       0.00000000       9.88300000        0
O       16.75733333       2.09466667      10.93914560        1
O       17.80466667       1.04733333       8.82685440        1
H       16.75733333       2.09466667      11.93380980        2
H       17.80466667       1.04733333       7.83219020        2
Mg      15.71000000       3.14200000       9.88300000        0
O       16.75733333       5.23666667      10.93914560        1
O       17.80466667       4.18933333       8.82685440        1
H       16.75733333       5.23666667      11.93380980        2
H       17.80466667       4.18933333       7.83219020        2
Mg      12.56800000       6.28400000       9.88300000        0
O       13.61533333       8.37866667      10.93914560        1
O       14.66266667       7.33133333       8.82685440        1
H       13.61533333       8.37866667      11.93380980        2
H       14.66266667       7.33133333       7.83219020        2
Mg      12.56800000       9.42600000       9.88300000        0
O       13.61533333      11.52066667      10.93914560        1
O       14.66266667      10.47333333       8.82685440        1
H       13.61533333      11.52066667      11.93380980        2
H       14.66266667      10.47333333       7.83219020        2
Mg      15.71000000       6.28400000       9.88300000        0
O       16.75733333       8.37866667      10.93914560        1
O       17.80466667       7.33133333       8.82685440        1
H       16.75733333       8.37866667      11.93380980        2
H       17.80466667       7.33133333       7.83219020        2
Mg      15.71000000       9.42600000       9.88300000        0
O       16.75733333      11.52066667      10.93914560        1
O       17.80466667      10.47333333       8.82685440        1
H       16.75733333      11.52066667      11.93380980        2
H       17.80466667      10.47333333       7.83219020        2
Mg      12.56800000      12.56800000       9.88300000        0
O       13.61533333      14.66266667      10.93914560        1
O       14.66266667      13.61533333       8.82685440        1
H       13.61533333      14.66266667      11.93380980        2
H       14.66266667      13.61533333       7.83219020        2
Mg      12.56800000      15.71000000       9.88300000        0
O       13.61533333      17.80466667      10.93914560        1
O       14.66266667      16.75733333       8.82685440        1
H       13.61533333      17.80466667      11.93380980        2
H       14.66266667      16.75733333       7.83219020        2
Mg      15.71000000      12.56800000       9.88300000        0
O       16.75733333      14.66266667      10.93914560        1
O       17.80466667      13.61533333       8.82685440        1
H       16.75733333      14.66266667      11.93380980        2
H       17.80466667      13.61533333       7.83219020        2
Mg      15.71000000      15.71000000       9.88300000        0
O       16.75733333      17.80466667      10.93914560        1
O       17.80466667      16.75733333       8.82685440        1
H       16.75733333      17.80466667      11.93380980        2
H       17.80466667      16.75733333       7.83219020        2
Mg      12.56800000      18.85200000       9.88300000        0
O       13.61533333      20.94666667      10.93914560        1
O       14.66266667      19.89933333       8.82685440        1
H       13.61533333      20.94666667      11.93380980        2
H       14.66266667      19.89933333       7.83219020        2
Mg      12.56800000      21.99400000       9.88300000        0
O       13.61533333      24.08866667      10.93914560        1
O       14.66266667      23.04133333       8.82685440        1
H       13.61533333      24.08866667      11.93380980        2
H       14.66266667      23.04133333       7.83219020        2
Mg      15.71000000      18.85200000       9.88300000        0
O       16.75733333      20.94666667      10.93914560        1
O       17.80466667      19.89933333       8.82685440        1
H       16.75733333      20.94666667      11.93380980        2
H       17.80466667      19.89933333       7.83219020        2
Mg      15.71000000      21.99400000       9.88300000        0
O       16.75733333      24.08866667      10.93914560        1
O       17.80466667      23.04133333       8.82685440        1
H       16.75733333      24.08866667      11.93380980        2
H       17.80466667      23.04133333       7.83219020        2
Mg      12.56800000      25.13600000       9.88300000        0
O       13.61533333      27.23066667      10.93914560        1
O       14.66266667      26.18333333       8.82685440        1
H       13.61533333      27.23066667      11.93380980        2
H       14.66266667      26.18333333       7.83219020        2
Mg      12.56800000      28.27800000       9.88300000        0
O       13.61533333      30.37266667      10.93914560        1
O       14.66266667      29.32533333       8.82685440        1
H       13.61533333      30.37266667      11.93380980        2
H       14.66266667      29.32533333       7.83219020        2
Mg      15.71000000      25.13600000       9.88300000        0
O       16.75733333      27.23066667      10.93914560        1
O       17.80466667      26.18333333       8.82685440        1
H       16.75733333      27.23066667      11.93380980        2
H       17.80466667      26.18333333       7.83219020        2
Mg      15.71000000      28.27800000       9.88300000        0
O       16.75733333      30.37266667      10.93914560        1
O       17.80466667      29.32533333       8.82685440        1
H       16.75733333      30.37266667      11.93380980        2
H       17.80466667      29.32533333       7.83219020        2
Mg      18.85200000       0.00000000       9.88300000        0
O       19.89933333       2.09466667      10.93914560        1
O       20.94666667       1.04733333       8.82685440        1
H       19.89933333       2.09466667      11.93380980        2
H       20.94666667       1.04733333       7.83219020        2
Mg      18.85200000       3.14200000       9.88300000        0
O       19.89933333       5.23666667      10.93914560        1
O       20.94666667       4.18933333       8.82685440        1
H       19.89933333       5.23666667      11.93380980        2
H       20.94666667       4.18933333       7.83219020        2
Mg      21.99400000       0.00000000       9.88300000        0
O       23.04133333       2.09466667      10.93914560        1
O       24.08866667       1.04733333       8.82685440        1
H       23.04133333       2.09466667      11.93380980        2
H       24.08866667       1.04733333       7.83219020        2
Mg      21.99400000       3.14200000       9.88300000        0
O       23.04133333       5.23666667      10.93914560        1
O       24.08866667       4.18933333       8.82685440        1
H       23.04133333       5.23666667      11.93380980        2
H       24.08866667       4.18933333       7.83219020        2
Mg      18.85200000       6.28400000       9.88300000        0
O       19.89933333       8.37866667      10.93914560        1
O       20.94666667       7.33133333       8.82685440        1
H       19.89933333       8.37866667      11.93380980        2
H       20.94666667       7.33133333       7.83219020        2
Mg      18.85200000       9.42600000       9.88300000        0
O       19.89933333      11.52066667      10.93914560        1
O       20.94666667      10.47333333       8.82685440        1
H       19.89933333      11.52066667      11.93380980        2
H       20.94666667      10.47333333       7.83219020        2
Mg      21.99400000       6.28400000       9.88300000        0
O       23.04133333       8.37866667      10.93914560        1
O       24.08866667       7.33133333       8.82685440        1
H       23.04133333       8.37866667      11.93380980        2
H       24.08866667       7.33133333       7.83219020        2
Mg      21.99400000       9.42600000       9.88300000        0
O       23.04133333      11.52066667      10.93914560        1
O       24.08866667      10.47333333       8.82685440        1
H       23.04133333      11.52066667      11.93380980        2
H       24.08866667      10.47333333       7.83219020        2
Mg      18.85200000      12.56800000       9.88300000        0
O       19.89933333      14.66266667      10.93914560        1
O       20.94666667      13.61533333       8.82685440        1
H       19.89933333      14.66266667      11.93380980        2
H       20.94666667      13.61533333       7.83219020        2
Mg      18.85200000      15.71000000       9.88300000        0
O       19.89933333      17.80466667      10.93914560        1
O       20.94666667      16.75733333       8.82685440        1
H       19.89933333      17.80466667      11.93380980        2
H       20.94666667      16.75733333       7.83219020        2
Mg      21.99400000      12.56800000       9.88300000        0
O       23.04133333      14.66266667      10.93914560        1
O       24.08866667      13.61533333       8.82685440        1
H       23.04133333      14.66266667      11.93380980        2
H       24.08866667      13.61533333       7.83219020        2
Mg      21.99400000      15.71000000       9.88300000        0
O       23.04133333      17.80466667      10.93914560        1
O       24.08866667      16.75733333       8.82685440        1
H       23.04133333      17.80466667      11.93380980        2
H       24.08866667      16.75733333       7.83219020        2
Mg      18.85200000      18.85200000       9.88300000        0
O       19.89933333      20.94666667      10.93914560        1
O       20.94666667      19.89933333       8.82685440        1
H       19.89933333      20.94666667      11.93380980        2
H       20.94666667      19.89933333       7.83219020        2
Mg      18.85200000      21.99400000       9.88300000        0
O       19.89933333      24.08866667      10.93914560        1
O       20.94666667      23.04133333       8.82685440        1
H       19.89933333      24.08866667      11.93380980        2
H       20.94666667      23.04133333       7.83219020        2
Mg      21.99400000      18.85200000       9.88300000        0
O       23.04133333      20.94666667      10.93914560        1
O       24.08866667      19.89933333       8.82685440        1
H       23.04133333      20.94666667      11.93380980        2
H       24.08866667      19.89933333       7.83219020        2
Mg      21.99400000      21.99400000       9.88300000        0
O       23.04133333      24.08866667      10.93914560        1
O       24.08866667      23.04133333       8.82685440        1
H       23.04133333      24.08866667      11.93380980        2
H       24.08866667      23.04133333       7.83219020        2
Mg      18.85200000      25.13600000       9.88300000        0
O       19.89933333      27.23066667      10.93914560        1
O       20.94666667      26.18333333       8.82685440        1
H       19.89933333      27.23066667      11.93380980        2
H       20.94666667      26.18333333       7.83219020        2
Mg      18.85200000      28.27800000       9.88300000        0
O       19.89933333      30.37266667      10.93914560        1
O       20.94666667      29.32533333       8.82685440        1
H       19.89933333      30.37266667      11.93380980        2
H       20.94666667      29.32533333       7.83219020        2
Mg      21.99400000      25.13600000       9.88300000        0
O       23.04133333      27.23066667      10.93914560        1
O       24.08866667      26.18333333       8.82685440        1
H       23.04133333      27.23066667      11.93380980        2
H       24.08866667      26.18333333       7.83219020        2
Mg      21.99400000      28.27800000       9.88300000        0
O       23.04133333      30.37266667      10.93914560        1
O       24.08866667      29.32533333       8.82685440        1
H       23.04133333      30.37266667      11.93380980        2
H       24.08866667      29.32533333       7.83219020        2
Mg      25.13600000       0.00000000       9.88300000        0
O       26.18333333       2.09466667      10.93914560        1
O       27.23066667       1.04733333       8.82685440        1
H       26.18333333       2.09466667      11.93380980        2
H       27.23066667       1.04733333       7.83219020        2
Mg      25.13600000       3.14200000       9.88300000        0
O       26.18333333       5.23666667      10.93914560        1
O       27.23066667       4.18933333       8.82685440        1
H       26.18333333       5.23666667      11.93380980        2
H       27.23066667       4.18933333       7.83219020        2
Mg      28.27800000       0.00000000       9.88300000        0
O       29.32533333       2.09466667      10.93914560        1
O       30.37266667       1.04733333       8.82685440        1
H       29.32533333       2.09466667      11.93380980        2
H       30.37266667       1.04733333       7.83219020        2
Mg      28.27800000       3.14200000       9.88300000        0
O       29.32533333       5.23666667      10.93914560        1
O       30.37266667       4.18933333       8.82685440        1
H       29.32533333       5.23666667      11.93380980        2
H       30.37266667       4.18933333       7.83219020        2
Mg      25.13600000       6.28400000       9.88300000        0
O       26.18333333       8.37866667      10.93914560        1
O       27.23066667       7.33133333       8.82685440        1
H       26.18333333       8.37866667      11.93380980        2
H       27.23066667       7.33133333       7.83219020        2
Mg      25.13600000       9.42600000       9.88300000        0
O       26.18333333      11.52066667      10.93914560        1
O       27.23066667      10.47333333       8.82685440        1
H       26.18333333      11.52066667      11.93380980        2
H       27.23066667      10.47333333       7.83219020        2
Mg      28.27800000       6.28400000       9.88300000        0
O       29.32533333       8.37866667      10.93914560        1
O       30.37266667       7.33133333       8.82685440        1
H       29.32533333       8.37866667      11.93380980        2
H       30.37266667       7.33133333       7.83219020        2
Mg      28.27800000       9.42600000       9.88300000        0
O       29.32533333      11.52066667      10.93914560        1
O       30.37266667      10.47333333       8.82685440        1
H       29.32533333      11.52066667      11.93380980        2
H       30.37266667      10.47333333       7.83219020        2
Mg      25.13600000      12.56800000       9.88300000        0
O       26.18333333      14.66266667      10.93914560        1
O       27.23066667      13.61533333       8.82685440        1
H       26.18333333      14.66266667      11.93380980        2
H       27.23066667      13.61533333       7.83219020        2
Mg      25.13600000      15.71000000       9.88300000        0
O       26.18333333      17.80466667      10.93914560        1
O       27.23066667      16.75733333       8.82685440        1
H       26.18333333      17.80466667      11.93380980        2
H       27.23066667      16.75733333       7.83219020        2
Mg      28.27800000      12.56800000       9.88300000        0
O       29.32533333      14.66266667      10.93914560        1
O       30.37266667      13.61533333       8.82685440        1
H       29.32533333      14.66266667      11.93380980        2
H       30.37266667      13.61533333       7.83219020        2
Mg      28.27800000      15.71000000       9.88300000        0
O       29.32533333      17.80466667      10.93914560        1
O       30.37266667      16.75733333       8.82685440        1
H       29.32533333      17.80466667      11.93380980        2
H       30.37266667      16.75733333       7.83219020        2
Mg      25.13600000      18.85200000       9.88300000        0
O       26.18333333      20.94666667      10.93914560        1
O       27.23066667      19.89933333       8.82685440        1
H       26.18333333      20.94666667      11.93380980        2
H       27.23066667      19.89933333       7.83219020        2
Mg      25.13600000      21.99400000       9.88300000        0
O       26.18333333      24.08866667      10.93914560        1
O       27.23066667      23.04133333       8.82685440        1
H       26.18333333      24.08866667      11.93380980        2
H       27.23066667      23.04133333       7.83219020        2
Mg      28.27800000      18.85200000       9.88300000        0
O       29.32533333      20.94666667      10.93914560        1
O       30.37266667      19.89933333       8.82685440        1
H       29.32533333      20.94666667      11.93380980        2
H       30.37266667      19.89933333       7.83219020        2
Mg      28.27800000      21.99400000       9.88300000        0
O       29.32533333      24.08866667      10.93914560        1
O       30.37266667      23.04133333       8.82685440        1
H       29.32533333      24.08866667      11.93380980        2
H       30.37266667      23.04133333       7.83219020        2
Mg      25.13600000      25.13600000       9.88300000        0
O       26.18333333      27.23066667      10.93914560        1
O       27.23066667      26.18333333       8.82685440        1
H       26.18333333      27.23066667      11.93380980        2
H       27.23066667      26.18333333       7.83219020        2
Mg      25.13600000      28.27800000       9.88300000        0
O       26.18333333      30.37266667      10.93914560        1
O       27.23066667      29.32533333       8.82685440        1
H       26.18333333      30.37266667      11.93380980        2
H       27.23066667      29.32533333       7.83219020        2
Mg      28.27800000      25.13600000       9.88300000        0
O       29.32533333      27.23066667      10.93914560        1
O       30.37266667      26.18333333       8.82685440        1
H       29.32533333      27.23066667      11.93380980        2
H       30.37266667      26.18333333       7.83219020        2
Mg      28.27800000      28.27800000       9.88300000        0
O       29.32533333      30.37266667      10.93914560        1
O       30.37266667      29.32533333       8.82685440        1
H       29.32533333      30.37266667      11.93380980        2
H       30.37266667      29.32533333       7.83219020        2
O       15.06054825      12.92672349      15.15348986        0
H       15.39241851      12.58580552      14.32290639        0
H       15.29175791      12.25715726      15.79727166        0
O       23.27175895      23.52766264      17.38101655        0
H       23.51474235      23.06500237      18.18297440        0
H       23.75929886      24.35040047      17.42150278        0
O       29.54587770      19.49314207       5.81900810        0
H       30.45659631      19.73679347       5.65330521        0
H       29.54392228      19.17053169       6.72020206        0
O       13.44098726      20.26739593      15.56883419        0
H       13.64931780      21.18009476      15.76836133        0
H       14.23505013      19.92400111      15.15922952        0
O        5.01694866      11.15727238       4.95994475        0
H        4.24130362      11.19306599       4.40018995        0
H        5.75328330      11.13684391       4.34869536        0
O        6.51716058       4.32847165       0.23406637        0
H        7.00118499       4.13235103       1.03624398        0
H        6.71591328       3.59739572      -0.35096114        0
O       26.12755345      10.99426942       2.83424554        0
H       27.06069687      10.78205308       2.81328302        0
H       25.95882677      11.41794673       1.99266329        0
O       25.40951650      19.15363643       4.24662983        0
H       25.65279057      19.77556578       3.56087954        0
H       26.23679986      18.93197038       4.67406198        0
O       30.41327615      24.83155472       3.87218630        0
H       30.17701200      25.75225502       3.75939424        0
H       29.84323302      24.36124558       3.26383445        0
O        0.19887754       6.34776424      18.82356945        0
H       -0.40677383       7.03207470      18.53872306        0
H        0.49748713       5.93833933      18.01151318        0
O        2.86190413      16.93596302       1.09776472        0
H        3.12418885      16.12516869       0.66181619        0
H        3.46281563      17.01534173       1.83859953        0
O       30.31983811       6.94115955       5.21247504        0
H       29.79878525       6.34063873       5.74549521        0
H       31.22650135       6.75041672       5.45291373        0
O       25.87707224      13.43288906       1.32437219        0
H       26.16956361      12.96900770       2.10890691        0
H       24.92363729      13.34909295       1.33748096        0
O       19.06651782      28.07243428       6.47410268        0
H       19.55995782      28.23473761       7.27809673        0
H       19.64019897      27.51447646       5.94893141        0
O       12.02510208       9.26453525      15.92788094        0
H       11.58761345       8.43258982      16.10871886        0
H       11.73054457       9.50458311      15.04933400        0
O       15.05511399      17.25591207      15.14240216        0
H       15.63047547      17.09002359      15.88917657        0
H       15.62452572      17.17240330      14.37753066        0
O       10.61596851      14.86346921       6.34072522        0
H       11.40344656      15.37779459       6.16301877        0
H       10.84086955      13.97598240       6.06140725        0
O       18.92902185      24.38517963       1.30247020        0
H       19.42216728      23.64594481       0.94670158        0
H       18.31942529      23.98947055       1.92539732        0
O        8.08566788      15.90823572       2.23701947        0
H        7.58441217      16.31305286       1.52913697        0
H        8.78452744      16.53474281       2.42494504        0
O       25.51649348       6.22421480       1.82015482        0
H       26.22561131       5.67308464       1.48903660        0
H       24.89905150       5.60894943       2.21568708        0
O        8.00709871      25.78974226      15.01186534        0
H        8.38293563      26.30988620      14.30163388        0
H        8.12985685      26.32754294      15.79412661        0
O       19.52030124      29.08029658       1.28694327        0
H       19.98283144      29.70256398       1.84826398        0
H       18.70006498      28.90483540       1.74809151        0
O        9.57897335       7.76129535      18.83537115        0
H        9.52333205       8.71069929      18.72689050        0
H       10.27159960       7.63400635      19.48367527        0
O       16.34112910      10.06027551       2.00837601        0
H       16.38094283      10.82043640       1.42802945        0
H       16.06125791       9.34074507       1.44253159        0
O       15.22596006      19.60490238      12.51380170        0
H       14.90497902      20.02425089      11.71545976        0
H       15.62709675      20.31583559      13.01369686        0
O       15.09879514      29.65496588      16.35337148        0
H       15.83126469      29.93598396      16.90177739        0
H       15.30051763      28.74612434      16.13078010        0
O       12.19700247      28.27027838       3.72622361        0
H       12.50215508      27.37817280       3.89133379        0
H       12.89965078      28.82946083       4.05763299        0
O        0.37806919      17.92745275      16.24998257        0
H       -0.33613789      17.67152325      16.83362644        0
H        0.64665688      17.11168688      15.82734970        0
O        4.98437890       2.16388293       3.77138881        0
H        4.60454501       2.17391019       4.64994303        0
H        5.61485331       2.88410895       3.77427753        0
O       14.29336946       5.81291280      18.39380720        0
H       14.03569021       4.89105049      18.39204094        0
H       13.56260378       6.26555646      18.81490942        0
O       24.01763313      14.54001004       0.01804773        0
H       24.16998050      14.72581957       0.94459883        0
H       23.62471163      13.66721235       0.00975776        0
O       10.98735300      22.62666310       2.69729639        0
H       10.74230546      22.36588767       1.80950153        0
H       10.89611577      21.82738221       3.21600409        0
O       17.19988901      25.50747814      13.13367156        0
H       16.24736929      25.55304543      13.05083657        0
H       17.43914417      26.31007977      13.59715773        0
O       28.67492982      10.19203108       0.97925104        0
H       29.41956387      10.76713630       1.15533613        0
H       29.05205373       9.31267801       0.95190904        0
O        2.95838285      24.96818069       3.25461154        0
H        2.94157971      25.53710058       4.02420861        0
H        2.13886592      25.15801304       2.79789772        0
O       18.78725689       7.98424853       0.74545487        0
H       19.65666124       7.75674195       0.41589656        0
H       18.79433658       8.93977810       0.80153482        0
O       12.45499148       4.95662533       0.00879149        0
H       11.86329438       5.68569440       0.19476103        0
H       11.90633172       4.30920716      -0.43398839        0
O        9.84683826      30.23272861      16.56085295        0
H        9.34282847      30.56966699      17.30158130        0
H       10.25462921      31.00822897      16.17544721        0
O       11.20623471      28.16240328       6.14660476        0
H       10.47801049      27.94644622       5.56412398        0
H       11.98988387      27.94355559       5.64239098        0
O       23.02157834       9.63295658       4.26334012        0
H       23.58509637       9.55904036       3.49313517        0
H       23.37994998      10.37342773       4.75273167        0
O        6.59753674      18.48300435      17.31388095        0
H        5.74477865      18.77724121      16.99378696        0
H        6.43521792      18.21618393      18.21869656        0
O       10.96007613      27.14900999       0.92519272        0
H       10.36477081      27.80803830       0.56808615        0
H       11.81125235      27.36201373       0.54262209        0
O        3.84694512      11.92088517      14.44445130        0
H        4.33367851      11.97497111      13.62201762        0
H        4.49129555      11.62037803      15.08534116        0
O        7.35548447       8.93689972       3.78909333        0
H        7.69691218       9.14192949       2.91867862        0
H        6.78450262       8.18115723       3.65101779        0
O        2.95844491      28.93327339      17.02803777        0
H        3.73380767      28.37362386      17.07089601        0
H        3.09679250      29.58783474      17.71261151        0
O       19.46357075       8.44607251      14.37594429        0
H       18.91437665       9.06663554      14.85502592        0
H       19.77702248       8.93880673      13.61752959        0
O        0.85325250      23.20279229       1.89149078        0
H        0.74384641      23.67898912       1.06838767        0
H        0.26762936      22.44974690       1.81275053        0
O       29.58219072       1.77812251       0.41561328        0
H       29.56941892       0.91071114       0.82017013        0
H       30.49608942       2.05671640       0.47397808        0
O       25.95217722      11.95352308      15.52611671        0
H       25.78426129      11.79494913      16.45503564        0
H       26.90269829      12.04972370      15.46706611        0
O       25.23576572       8.59545967      16.06546299        0
H       25.49034186       8.37894459      16.96242678        0
H       25.14231034       7.74756512      15.63121335        0
O        6.01494899      16.48287946       4.80443531        0
H        6.09473598      16.33590938       5.74691378        0
H        6.33451540      17.37551190       4.67284320        0
O       20.37983474      12.99805947      16.68729596        0
H       20.02949795      13.04908674      17.57661716        0
H       20.68855402      13.88448453      16.49974631        0
O        0.01698351       7.17868611      14.49044050        0
H       -0.47224960       6.48500747      14.93281223        0
H        0.13302876       6.85770053      13.59616225        0
O        8.22986813       0.49339242      18.39425341        0
H        7.76290887       1.17642957      17.91296229        0
H        8.64123958       0.95374577      19.12574516        0
O       30.15377408      12.53914393      14.73867273        0
H       30.62083417      11.80235550      15.13266451        0
H       29.32777540      12.58480738      15.22020452        0
O        6.33690174      27.89213064      13.43042302        0
H        6.17656195      28.76797102      13.07910177        0
H        6.21908344      27.98739723      14.37555527        0
O       12.43556893      19.86403134      12.88150047        0
H       12.20727766      20.33970720      12.08284697        0
H       12.51056962      18.95103993      12.60391549        0
O       22.44319184      16.44496703       3.50582443        0
H       23.15350717      17.04277057       3.73888001        0
H       22.84185815      15.82513235       2.89500368        0
O        1.60385248      10.30939262      15.56809605        0
H        1.92307132      11.19431468      15.39133597        0
H        2.19057039       9.73896381      15.07150275        0
O        2.74457403      12.13696292       1.93014573        0
H        2.97142814      12.52179550       2.77671110        0
H        3.53380387      12.24314094       1.39903902        0
O       18.30936747      16.35428354      19.15917008        0
H       18.50722894      16.81442546      18.34347890        0
H       17.37038665      16.48788452      19.28838937        0
O       23.19430439       5.27374658       5.70343578        0
H       22.79870698       5.88480274       6.32500226        0
H       23.25111003       5.76701352       4.88508825        0
O       16.82141174      25.05284046       6.24390500        0
H       17.41989909      24.39137101       6.59104025        0
H       17.35156884      25.55503424       5.62506196        0
O        0.58284937      11.43864878      18.91829470        0
H       -0.15465188      11.72908624      19.45492291        0
H        0.20278182      10.80294114      18.31194802        0
O       19.54043365       2.27083343      19.32330365        0
H       18.80214226       1.79654737      18.94092897        0
H       20.31422577       1.86952697      18.92779042        0
O        4.05567096      22.40498214      14.37701744        0
H        3.83555852      23.33601258      14.40807669        0
H        4.77414790      22.30726426      15.00189659        0
O       27.36305542      16.63755916       1.77330287        0
H       27.41502848      17.39073265       1.18486396        0
H       28.20052090      16.18762459       1.66175790        0
O       11.96971063      15.98201636      15.18054783        0
H       12.29403708      15.34569703      14.54325519        0
H       11.48388376      15.45775421      15.81722143        0
O        5.77220140      22.43486364      18.73143176        0
H        4.87028775      22.69243293      18.54053475        0
H        6.20643468      23.24996771      18.98298425        0
O       29.29236248      29.89401419      18.26502218        0
H       28.98367195      29.76959554      19.16249753        0
H       29.51613108      30.82333850      18.21486456        0
O       20.88727901      19.09397052       2.15141825        0
H       20.15243616      19.35814408       1.59783884        0
H       20.60415085      18.27073941       2.54936400        0
O       25.17429243      28.21654686      17.22280726        0
H       25.09668775      27.47490181      16.62266397        0
H       25.73408099      28.84105218      16.76143788        0
O       27.14273893      20.30267365      14.04812795        0
H       27.95906446      19.96453363      13.68001682        0
H       27.37325337      21.16660581      14.38976540        0
O       13.10978232      25.04425241       7.30652008        0
H       12.94795536      24.31895397       6.70320751        0
H       13.71967260      24.68767174       7.95236519        0
O        0.23094076       3.11393070       4.52144944        0
H        0.98094506       3.07693614       3.92785295        0
H        0.04075228       2.19821092       4.72520777        0
O        4.42611660      15.62030715      14.80705120        0
H        5.12312747      16.12836520      14.39197925        0
H        3.97706670      16.24736775      15.37395599        0
O       10.26665233       4.39486513      16.08718995        0
H       10.62900146       3.71126078      16.65076783        0
H        9.33662125       4.17971851      16.01657863        0
O       25.19329585       4.17858561       3.43596058        0
H       24.45507055       4.02267058       2.84693958        0
H       25.26839034       3.37171316       3.94542059        0
O       14.23139648      23.67592773      19.48397508        0
H       13.32779585      23.39385122      19.62599827        0
H       14.60816217      23.72570364      20.36249759        0
O        6.94989258       3.05198612       6.11128190        0
H        7.76551319       3.22482418       5.64104593        0
H        7.03371734       3.54609027       6.92679790        0
O       20.71476840       1.15200644      13.82266801        0
H       20.28998907       1.01227555      12.97634087        0
H       21.28147703       0.38891474      13.93564693        0
O        2.07867371      20.54531947      19.12966729        0
H        1.54710641      21.33980701      19.08009316        0
H        1.88464933      20.18023501      19.99297471        0
O       18.59392291      17.73252647      15.76082321        0
H       18.04290353      17.25656563      16.38216914        0
H       19.45090273      17.31155115      15.82862596        0
O       19.02689391      12.56020727       0.62937561        0
H       19.73567413      13.00464533       0.16425493        0
H       18.37287510      13.24292809       0.77898684        0
O        6.90524592      28.18368545       2.85401754        0
H        6.36965753      27.41086044       2.67480141        0
H        7.78545467      27.83706161       3.00001858        0
O        1.38676037       8.77878640       5.30501423        0
H        0.81236508       9.34022346       5.82567757        0
H        0.93882828       8.69167934       4.46358625        0
O       12.69176470      19.82965884       6.00883520        0
H       12.45410239      19.00542432       6.43355385        0
H       11.86977064      20.31703083       5.95382479        0
O       23.10044599      18.32748448      14.02229832        0
H       23.02704532      18.67621051      14.91068694        0
H       23.05892337      17.37763148      14.13314499        0
O       16.10792862      23.09843285       4.76423764        0
H       15.70810371      23.70344979       5.38899870        0
H       15.48502443      22.37458811       4.69888460        0
O       16.72533873      30.58053202       6.24856582        0
H       16.52656696      31.42805716       6.64658939        0
H       16.00983100      30.00993349       6.52909720        0
O        7.63570972      10.12057935      15.77011478        0
H        8.12389319      10.62380564      15.11844612        0
H        7.09408569      10.77010118      16.21844127        0
O       26.38815573      24.12737185       0.15102966        0
H       25.76091326      24.46056638      -0.49067130        0
H       27.14207995      24.71232552       0.07580119        0
O       25.28046594      18.35642102      18.77414748        0
H       24.78198271      18.87322124      18.14116735        0
H       24.62875078      18.06336313      19.41102759        0
O        1.64928474      29.47462842       3.53097799        0
H        1.16499746      29.07471083       4.25331004        0
H        2.12921069      30.19759170       3.93499164        0
O        8.30774025      14.54291019      14.25426811        0
H        8.30247868      14.27125502      15.17209577        0
H        9.19794108      14.86060206      14.10311852        0
O        9.01841253      16.73743691      18.42183429        0
H        9.28963692      16.35295980      19.25540883        0
H        8.71716806      15.99303332      17.90092460        0
O        7.44816317       1.86074933      15.48931005        0
H        7.01235720       1.88114824      16.34130118        0
H        7.86120119       2.72063344      15.41037494        0
O       16.79668494      30.50562812       2.52297437        0
H       16.91755699      31.22860920       1.90740947        0
H       16.56510990      30.93000713       3.34911438        0
O       28.24984177       3.61375098      15.78927465        0
H       28.53142355       4.48620076      15.51400219        0
H       28.18249229       3.67287419      16.74227010        0
O        6.17622658       6.43006356      18.60100227        0
H        5.87682846       6.41028333      19.50995846        0
H        6.95632361       5.87542946      18.59316145        0
O       25.26111251       3.75779351      12.73023436        0
H       24.57796124       3.34231768      13.25646247        0
H       26.08114781       3.43013173      13.09957390        0
O       17.75307665      25.49881477       3.43844938        0
H       17.68756022      24.99114052       4.24727958        0
H       17.21406490      26.27373781       3.59717069        0
O       21.44099962      10.53354141      13.51180306        0
H       20.62589932      10.35758679      13.04182082        0
H       21.72170787       9.67715768      13.83435790        0
O        0.53940125      21.11483979      14.85747092        0
H        0.77680904      20.59841957      15.62765241        0
H        0.18076569      20.47601961      14.24141803        0
O        7.01352639      16.76509409      15.06160151        0
H        6.41530566      16.73026194      15.80802667        0
H        6.99777264      17.68100908      14.78396257        0
O       27.95581089      27.34512985      18.99559946        0
H       28.79941113      27.75987938      19.17602479        0
H       28.05655272      26.44797203      19.31370443        0
O       10.19479481       2.88300415      19.32902640        0
H       10.75681630       2.68635020      20.07848681        0
H       10.47945190       3.74871875      19.03621178        0
O       17.68973423       1.34865868       1.84975253        0
H       17.07196379       1.16081923       2.55636973        0
H       17.48052491       2.24274427       1.57943001        0
O        4.33147513      30.79219251       3.50210901        0
H        4.27812781      29.85619052       3.69520530        0
H        5.11750504      30.88164561       2.96323336        0
O       16.97725488       8.71461161      17.87296001        0
H       17.44401455       9.53055750      17.69240657        0
H       16.71753101       8.39079626      17.01045264        0
O        5.41786528      27.32411186       0.69471219        0
H        6.34441497      27.56420935       0.70423573        0
H        4.96085832      28.13919389       0.48730495        0
O        9.81393190      19.63796533       3.09685640        0
H        9.39709488      20.48857541       2.95922927        0
H        9.27102265      19.20885615       3.75817833        0
O       10.75992564      22.23648826      17.84704461        0
H        9.96077735      21.97068629      18.30195467        0
H       11.36070378      22.49230117      18.54694261        0
O       24.33139322      12.64829175      13.69453974        0
H       25.08846352      12.20324624      13.31373677        0
H       24.70826157      13.33725346      14.24183660        0
O       25.43676794      31.31122996       0.88678185        0
H       26.26197010      30.93816560       1.19677575        0
H       25.22699019      30.80879555       0.09951772        0
O        4.05484957       7.68778463       3.24243090        0
H        4.75465214       8.09135664       2.72897416        0
H        3.28993424       8.24028530       3.08156020        0
O       15.02576682       4.55975449       5.20870750        0
H       15.37851954       5.43575714       5.05244901        0
H       15.78423571       3.97987483       5.14017742        0
O        4.39675772       3.59992636      17.34882935        0
H        5.30545200       3.31879657      17.24171913        0
H        4.35346536       3.93603782      18.24403140        0
O       11.93229015       6.52028395      14.17076046        0
H       11.65600799       5.96380573      13.44259016        0
H       12.83548890       6.75840347      13.96156451        0
O        0.27924543      30.17156539       1.66149625        0
H        0.37513536      30.20139557       0.70957865        0
H        1.15527688      29.96061166       1.98445021        0
O       25.23978173      10.93698852      18.52599821        0
H       24.39755624      11.39120405      18.50199179        0
H       25.04727442      10.05715948      18.20184758        0
O       11.08632609      24.66615080      16.64277758        0
H       11.51091465      24.92278907      17.46136978        0
H       11.70578337      24.92384467      15.96006360        0
O       28.58539200      16.89121626       4.99460807        0
H       28.74499488      17.79098266       4.70968846        0
H       29.45826804      16.50701764       5.07652688        0
O       28.89509947       3.87526199       2.26788972        0
H       28.20707101       4.22082185       1.69917444        0
H       29.19798390       3.08310886       1.82405835        0
O        3.70086757       4.05484371       1.61635958        0
H        3.49032823       4.03822581       2.54997025        0
H        2.84985873       4.04635216       1.17824579        0
O        3.52530861       7.44942395       6.53104947        0
H        3.90738881       8.00328251       7.21184846        0
H        3.78815855       7.86364627       5.70912392        0
O       26.61441620      20.73138538      17.71279259        0
H       27.53183307      20.97449020      17.83720389        0
H       26.59854645      19.78248721      17.83758146        0
O       13.18335692      13.38471787      18.91836918        0
H       12.76013318      12.69075012      19.42386129        0
H       12.73650413      13.37173178      18.07197342        0
O       26.01939474      15.75783373       4.66966412        0
H       25.47323760      14.97188745       4.68491738        0
H       26.83767994      15.48959489       5.08762238        0
O       31.16041341      13.40136395       4.03230907        0
H       30.32182580      13.82332555       4.21926114        0
H       31.06048279      13.05043788       3.14738162        0
O        6.26216926       7.14699716       5.61753585        0
H        6.42162059       6.28947078       5.22325724        0
H        5.85119980       7.65879688       4.92083147        0
O       26.69326187      26.77910470       3.36409375        0
H       27.32878167      26.94714380       4.05987338        0
H       27.22646050      26.56252711       2.59922435        0
O       13.02691286      18.02895063       2.34840272        0
H       12.89379450      18.14421177       1.40753811        0
H       12.38194872      18.60787269       2.75473061        0
O       11.92699097       0.22578202       4.42166260        0
H       11.23009924      -0.41497750       4.28023769        0
H       11.86908573       0.44184727       5.35235838        0
O        3.72595659      19.73296144       5.97825149        0
H        3.91192820      20.51340053       6.50032547        0
H        4.57731567      19.46931763       5.62909323        0
O       11.61345714       0.33829552      14.22110030        0
H       11.92512451       0.37077092      15.12555629        0
H       11.84514115       1.19252102      13.85661002        0
O        5.35132694      22.84783719       1.66174525        0
H        5.44936965      22.92971617       0.71310660        0
H        4.68833993      22.16704019       1.77661697        0
O       16.65038157      24.00338135      15.25152767        0
H       15.76880944      24.36817482      15.32891082        0
H       17.19124188      24.74073266      14.96865842        0
O       12.52827042      22.16618291       5.25187655        0
H       12.86236940      23.01650583       5.53746481        0
H       13.31100027      21.62777116       5.13492095        0
O       14.25590567       8.27328800       3.25463421        0
H       14.08186838       7.52408348       2.68486631        0
H       13.39064629       8.55516437       3.55145700        0
O       22.03227085      11.86728780       0.17431030        0
H       21.62797213      11.42422527       0.92027945        0
H       21.29491028      12.13558786      -0.37391074        0
O       20.67801711      27.69240383      18.83307649        0
H       20.65463182      28.41418332      18.20480956        0
H       21.01257896      28.08629420      19.63877530        0
O       14.49702129       4.74476282      16.11885247        0
H       14.86206239       4.95971878      16.97720599        0
H       13.84650676       4.06579305      16.29791317        0
O        3.77304551      18.34251749      16.92470006        0
H        3.61702134      17.64449125      17.56081929        0
H        4.28115152      17.92448850      16.22949370        0
O       24.79150279      29.32772299       4.53952109        0
H       25.38191235      29.71866663       5.18357968        0
H       23.92283759      29.40060217       4.93492118        0
O       30.58193256      10.11342677       2.43656684        0
H       30.98829576       9.33554878       2.05445872        0
H       30.78488545      10.05611926       3.37024656        0
O       31.39652668      25.50988314      15.54380797        0
H       32.13485331      24.93117235      15.35354646        0
H       31.33507890      25.51438725      16.49902299        0
O        7.80813542      29.12046363      19.00317360        0
H        8.17969767      29.99271749      19.13487987        0
H        7.28151150      28.96310538      19.78684283        0
O        0.56770026      14.99222916      15.42802244        0
H        0.02330116      14.42345304      15.97240758        0
H        1.17156433      14.39525422      14.98620693        0
O        6.40036256      11.38397326      17.66511904        0
H        6.97336183      12.05372777      17.29184626        0
H        5.69772848      11.28413664      17.02280304        0
O        6.58561123      14.19027787       0.75023339        0
H        5.77732186      14.57640718       0.41288446        0
H        7.28462461      14.68196397       0.31912215        0
O       19.89178546      19.71294583       4.99502064        0
H       20.61794505      19.90688774       5.58773526        0
H       19.11315308      19.74522721       5.55082759        0
O       26.54871723      22.49813870       2.70092289        0
H       26.09246471      21.99991382       2.02280973        0
H       25.93499594      23.19163537       2.94308064        0
O       29.14722467       4.26127087       5.72843606        0
H       28.74151682       4.59346903       6.52923402        0
H       28.86404664       4.86955799       5.04577302        0
O       20.32074543      16.04409659      13.78278180        0
H       20.57192890      15.70951774      12.92185457        0
H       20.08421312      15.26361357      14.28391110        0
O       26.39461422       7.07997454      18.54907171        0
H       25.44785998       6.93931877      18.55927983        0
H       26.76847679       6.19997414      18.59443614        0
O       19.77314242      29.30651345      13.37292360        0
H       20.01086910      30.15025125      13.75740298        0
H       18.81634156      29.31571345      13.34685964        0
O        2.12117575      31.33420695       0.55492153        0
H        2.54457906      32.16107265       0.32415196        0
H        1.49913991      31.17668043      -0.15535211        0
O       28.70574255       4.94983511      19.34202253        0
H       27.80229441       4.80867281      19.62501809        0
H       29.22968549       4.40950922      19.93343064        0
O       30.85495467       0.13633420       5.36559648        0
H       30.61978024       0.86582429       5.93898032        0
H       30.85470343      -0.62973781       5.93950017        0
O        7.22501661      22.23869360      14.01847822        0
H        6.71630665      21.46572703      13.77359312        0
H        7.04913543      22.35586402      14.95205668        0
O       22.25929779       9.02026155       7.30378413        0
H       22.24531930       9.27768122       6.38195358        0
H       23.15918345       9.18505572       7.58535211        0
O       28.44729831       1.31004362       5.56683411        0
H       28.77162838       2.19146364       5.75160587        0
H       27.66317597       1.22428119       6.10907833        0
O       23.08484498       8.68582220      18.94023887        0
H       22.86126565       7.80331030      18.64457541        0
H       23.89262591       8.89812990      18.47264156        0
O        2.14978596       5.12939832      15.61977533        0
H        3.02160188       5.27061039      15.25068458        0
H        1.81728671       6.00998494      15.79368130        0
O       22.42640054      27.33059461      14.36894655        0
H       22.83614980      27.98888338      14.93018918        0
H       21.59836904      27.72749645      14.09864191        0
O       29.95748171       7.27912385       2.60815867        0
H       29.19578529       7.76216049       2.28764971        0
H       30.46760386       7.08603907       1.82156760        0
O       10.65074945      10.69714761       5.84281009        0
H       10.24535534      11.38845048       5.31937165        0
H       10.85817773      10.00835228       5.21133060        0
O       25.41293694       2.79171522       5.73711385        0
H       26.28055797       2.39772759       5.64634304        0
H       25.17809356       2.64645403       6.65361786        0
O       30.42498358       3.80034690      14.26434057        0
H       29.97672021       4.17298756      15.02357093        0
H       30.08957879       4.29874003      13.51912935        0
O        7.63834691       0.37057443      13.18606572        0
H        6.79546907       0.06390273      12.85178851        0
H        8.10454510       0.68336676      12.41079025        0
O       26.71888538      28.81192981       1.50793924        0
H       26.82535044      29.28959728       0.68530273        0
H       26.35396888      29.45650563       2.11423108        0
O       30.27617665      14.89648597       0.16782707        0
H       29.43920927      15.35755829       0.11188279        0
H       30.66297978      15.20006150       0.98908043        0
O        7.13910847      22.29348964       4.08452694        0
H        7.47630038      21.47766526       4.45461346        0
H        7.66942954      22.43883246       3.30103038        0
O       13.26937702      25.21744761       2.38180236        0
H       12.97417987      25.22446317       3.29231940        0
H       13.29848079      24.29018011       2.14609111        0
O        8.53422825      21.22848856      15.80974377        0
H        9.33446194      20.94093497      16.24925579        0
H        8.83646937      21.60557734      14.98349550        0
O       21.53725217      26.25154190       2.67567040        0
H       20.67681280      25.98898064       2.34865738        0
H       22.04976348      25.44311455       2.67870561        0
O        5.63013366      24.83986006      13.90253261        0
H        6.38340600      24.88938396      13.31400902        0
H        4.87096730      24.82311738      13.31976510        0
O       13.90027938      10.75999271      19.37569213        0
H       13.34509272      10.63441743      20.14525725        0
H       13.43269519      10.31706590      18.66758712        0
O       24.22812487       0.79250142      12.74669369        0
H       24.15493682       0.48190172      11.84425080        0
H       24.47718454       0.01618945      13.24823217        0
O        8.21695715      21.08872055       0.78836087        0
H        7.66258702      21.74483144       1.21076365        0
H        7.62965142      20.35247874       0.61732924        0
O       10.34965360      16.31760155       3.92004522        0
H       11.02169316      16.33744857       4.60136802        0
H        9.56789481      16.67204560       4.34366588        0
O        4.72280451      30.95273178      13.78448153        0
H        3.80654363      31.19676364      13.91542538        0
H        4.89592217      30.29827852      14.46120381        0
O       19.75845822       6.03004224       3.59708854        0
H       20.08700906       6.42424217       4.40510624        0
H       20.47907137       6.12376263       2.97405964        0
O       13.98658752      28.25663241       0.74756036        0
H       13.41220550      29.02139832       0.70947837        0
H       14.72754982      28.53944961       1.28349052        0
O       25.47796812      31.36227499      15.00115490        0
H       26.28758614      31.08753505      15.43158312        0
H       24.80739093      30.77888132      15.35641523        0
O       18.08005491       5.40243673      14.86772210        0
H       19.03112342       5.50779530      14.84322515        0
H       17.73960741       6.20203826      14.46651800        0
O       24.86917490       2.86534901      19.54542655        0
H       25.01213214       2.06296996      19.04344755        0
H       24.31348308       2.59525826      20.27651439        0
O       29.42229548      24.07991475      19.68626328        0
H       28.88666055      23.36843562      19.33537225        0
H       29.01734802      24.87666268      19.34356498        0
O       18.27279393      15.32671742       1.79433854        0
H       18.44099673      16.17248223       1.37886105        0
H       19.13378142      14.91256419       1.85272928        0
O       25.02998726      20.72218020       0.32644551        0
H       24.20649326      21.20064519       0.23073387        0
H       25.58635155      21.05916395      -0.37578848        0
O        0.49331905      17.87536617       4.33547170        0
H        0.30800625      16.95151439       4.16698166        0
H       -0.22673805      18.16640950       4.89497452        0
O       16.09653246      16.40308199       4.27218919        0
H       16.62119903      16.04417552       4.98783085        0
H       16.69247102      16.42114519       3.52334822        0
O       29.24731073      20.86529992       2.03297464        0
H       29.63564342      21.71679973       2.23391650        0
H       29.05852044      20.90289203       1.09533031        0
O       24.97781818       0.12894900       5.66542755        0
H       24.77556394       0.66740596       4.90032026        0
H       24.76900557       0.68766347       6.41407116        0
O       27.37487406       8.21276816      14.11376402        0
H       27.92388100       7.89160509      13.39844765        0
H       27.96052262       8.75715107      14.63997201        0
O        8.96004741      13.48942445      16.53298414        0
H        9.15446723      12.70677318      17.04862913        0
H        8.10397769      13.77845315      16.84895704        0
O       15.64044253      18.81122568       4.48994503        0
H       14.81972419      18.74095942       4.00238385        0
H       15.66102263      18.02768694       5.03937686        0
O        9.25999433      10.81442820       0.32184032        0
H        8.63808162      11.53073894       0.44972833        0
H        9.61339540      10.64466122       1.19506349        0
O        3.20278235       2.31465956       5.97897310        0
H        3.21741868       3.18729211       5.58587002        0
H        3.59807779       2.43381147       6.84255644        0
O       14.44936688      22.67652665       2.36393571        0
H       13.68850214      22.43720739       1.83474484        0
H       15.16362205      22.76194107       1.73244876        0
O       24.21707224      22.67221176      13.87868397        0
H       25.11961160      22.39878647      14.04267530        0
H       23.91663841      23.02340568      14.71691674        0
O       11.60075707      27.43109795      14.51263170        0
H       11.93091135      28.09798465      13.91055852        0
H       10.75235369      27.17810419      14.14871178        0
O       12.69294061      14.62302744       1.32321454        0
H       11.74218173      14.60299697       1.43224744        0
H       13.00866768      15.13988370       2.06443506        0
O       20.64295966       2.83588610       6.76193619        0
H       20.69791141       2.65759378       7.70077803        0
H       21.53345314       3.08237618       6.51194452        0
O       20.00575477       4.35280035      16.40086301        0
H       20.53190639       3.55379246      16.36951505        0
H       19.35093918       4.23610810      15.71250896        0
O        7.91957167       6.21788730       2.93430958        0
H        7.89730709       7.11562216       2.60293630        0
H        7.40288114       6.24642904       3.73957234        0
O       18.96785680      31.08901565      19.10057010        0
H       18.73346539      31.59729628      18.32407585        0
H       19.72971742      30.57618649      18.83074331        0
O       16.42246759       1.12632996      14.53620709        0
H       16.83726229       1.84157988      14.05392632        0
H       16.29032460       0.44047530      13.88170464        0
O       11.29362960       3.29372892       6.36597878        0
H       10.41459444       2.92376136       6.28441274        0
H       11.66375008       2.86510283       7.13767972        0
O        9.90048986       1.16778610       2.85502040        0
H        9.63516568       0.25857684       2.71655225        0
H        9.07956219       1.66003559       2.85480322        0
O       13.62052043      11.76657357       2.72117761        0
H       13.67674936      10.81548526       2.81337944        0
H       13.37787216      11.90500296       1.80564991        0
O        1.73893588      27.11224363      14.18560430        0
H        1.02302426      26.70911149      13.69449649        0
H        1.36377635      27.30024432      15.04591989        0
O        2.06822400      20.93761866       2.03466998        0
H        2.02863272      21.35220878       2.89651649        0
H        1.85090563      20.02010557       2.19951626        0
O        5.48220753      23.67680740       6.37417842        0
H        5.48282881      23.13907256       5.58229920        0
H        4.58343021      23.99834136       6.44522125        0
O       14.78557452      15.27006097       6.09223064        0
H       14.41072953      15.87556378       5.45262966        0
H       15.45822024      15.78176879       6.54160206        0
O        2.16410919      24.13078748       5.88641756        0
H        2.14611266      25.00083381       5.48776062        0
H        3.08084490      23.86083127       5.83209335        0
O       17.10981830      28.89931420       0.34321849        0
H       17.10146444      28.54110084       1.23082496        0
H       16.54010796      28.31483442      -0.15682687        0
O        0.62314896      15.50375714       5.69567638        0
H        1.31300316      14.94463267       6.05304573        0
H       -0.12038338      15.37340977       6.28423484        0
O       19.36234524      10.43035911       3.49234975        0
H       19.25659788      11.35479680       3.71699236        0
H       19.93403962      10.08112359       4.17603969        0
O       22.45977720      12.98210434       3.44788865        0
H       22.64216640      13.79564304       2.97765380        0
H       22.90465277      12.30520244       2.93786769        0
O       19.98002371       1.06975775      16.31068956        0
H       20.43150875       1.04497631      15.46701962        0
H       20.68347498       1.05879095      16.95974108        0
O       31.13273348      19.41396902      19.28848834        0
H       31.98563569      18.98365105      19.34862233        0
H       30.50403028      18.69418907      19.23481392        0
O       29.19315547      12.21514294      19.29319190        0
H       29.25147392      13.07254773      18.87166156        0
H       29.12248074      12.41132138      20.22740330        0
O       20.37984699      18.33567648      18.34235989        0
H       19.48485580      18.01832377      18.46281682        0
H       20.90680413      17.79768381      18.93321680        0
O        9.02697403      29.86024460      14.09503078        0
H        9.90412128      29.93924490      14.47000210        0
H        8.76081187      30.76190962      13.91505927        0
O        0.73513763       2.91936158      18.02072101        0
H        1.67839755       3.06815531      18.08669816        0
H        0.65294825       2.14065167      17.47018707        0
O        4.90641316       4.05112115      13.60008098        0
H        4.17309089       3.44936288      13.47218544        0
H        5.36491139       3.71083857      14.36833807        0
O        4.44819606      13.45406856      19.65789725        0
H        3.79217614      13.21183693      19.00429680        0
H        5.23002737      12.96213693      19.40694920        0
O       31.39727487      27.02798021      18.17059051        0
H       32.34307653      27.15351372      18.09356849        0
H       31.23182476      27.02305751      19.11337037        0
O       19.75795001       0.15586171       5.88106530        0
H       20.02618441      -0.06396621       6.77322999        0
H       19.02540996       0.76171914       5.99310859        0
O       12.55359490      24.52809496      14.04792467        0
H       12.88073297      25.07681093      14.76075235        0
H       13.30103749      24.43014998      13.45803637        0
O       15.14509216       9.11149673      16.11802634        0
H       15.56653162       9.03656601      15.26186864        0
H       15.37535485       9.98915349      16.42286981        0
O       22.31667356       3.26660319       2.36628741        0
H       21.81940830       2.71382167       2.96910720        0
H       23.22679457       2.99627801       2.48809005        0
O       19.48858613      25.13293605      17.69546638        0
H       19.82148742      26.00804350      17.89445262        0
H       20.20561876      24.54414052      17.93087216        0
O       16.92696422       9.95482886       4.82100347        0
H       16.59714212      10.74820592       5.24290638        0
H       16.14013268       9.46165480       4.58882400        0
O       10.45853306      10.24320330       3.38378629        0
H       10.92027911      11.06982168       3.24334242        0
H       10.17786677       9.97350792       2.50930206        0
O        6.89838848      24.96965913      18.05786488        0
H        7.79200759      24.87363438      18.38719141        0
H        7.00642059      25.24091003      17.14628173        0
O       15.22830305       5.88406487      13.64270680        0
H       14.86563616       4.99875739      13.61212527        0
H       15.98315833       5.81412603      14.22711582        0
O       13.13150781      26.51195668      18.41227091        0
H       12.37207363      26.05341151      18.05278810        0
H       12.84985028      27.42405125      18.48287109        0
O       18.30848552       3.62049376      12.60152993        0
H       18.58941673       2.80404238      13.01470864        0
H       19.00869222       4.24261191      12.79878972        0
O       18.01881695      14.37918162      13.42853393        0
H       18.23937874      15.26808199      13.15025266        0
H       17.53262573      14.49687879      14.24462052        0
O       13.11093525      22.51891745      12.75518583        0
H       13.67187109      22.33829453      13.50947900        0
H       12.31392343      22.89125375      13.13250493        0
O       20.66402927       4.98664923       1.15520508        0
H       20.04491327       5.71077195       1.24779835        0
H       20.23628303       4.38112006       0.54973053        0
O        8.98604328      13.56732282       0.09822246        0
H        9.32136804      13.82843819       0.95589834        0
H        9.53474549      14.03964264      -0.52793384        0
O       31.07694231      22.23427692      12.76454246        0
H       30.84219657      22.47997817      11.86969210        0
H       31.22553318      23.06777287      13.21112626        0
O        1.58523451       6.58390234       3.20384702        0
H        0.79923865       6.33675291       2.71665146        0
H        1.53288846       6.07950308       4.01568020        0
O       25.59829407       5.64441693       6.98016878        0
H       25.26758068       6.41540235       6.51925450        0
H       26.50156470       5.86803801       7.20450694        0
O       13.81861120      12.38402373       6.06679540        0
H       13.54053882      11.51064754       5.79089394        0
H       14.41497168      12.67508933       5.37696438        0
O        2.19546791       2.65066266      14.02496981        0
H        1.45738128       3.15336075      14.36957771        0
H        1.87658203       1.74878157      13.99099711        0
O       17.75720093      18.22260564       2.93504181        0
H       18.64606308      18.55770765       2.81730242        0
H       17.25100994      18.63354116       2.23423192        0
O       15.39536975      18.19502882       1.06832052        0
H       15.98624982      17.71550661       0.48767343        0
H       14.72872485      18.55843078       0.48543507        0
O        7.75102022       9.00447277      13.55477856        0
H        8.17920655       8.14888146      13.58396428        0
H        7.26611058       9.05837604      14.37830083        0
O       23.65053003       7.45342187      14.43860043        0
H       23.25585819       6.76735379      14.97690942        0
H       23.55504917       7.13803789      13.53990794        0
O       25.37950292      24.66237978       4.69161513        0
H       25.61069566      25.48481796       4.25990086        0
H       25.10070995      24.92233331       5.56964159        0
O        8.47477588      11.92576023      14.16952946        0
H        8.28308401      12.62528060      13.54490371        0
H        8.11445372      12.23932291      14.99903427        0
O       11.38706625      13.80067088      14.02805413        0
H       10.55866693      13.32156357      14.04909230        0
H       11.88076316      13.45925208      14.77366019        0
O       23.52263065      23.77589472       0.53025093        0
H       24.38575217      24.02240695       0.19785837        0
H       23.66843981      23.58204675       1.45620692        0
O       26.78438499      13.89582934      18.74415712        0
H       27.67333922      13.55964300      18.85804719        0
H       26.21833577      13.18122286      19.03597506        0
O        9.33400702      25.28534898      19.00256774        0
H        9.54262396      26.16897094      19.30575586        0
H       10.03862067      24.73935397      19.35133828        0
O        5.46906359      10.99649137       0.26387028        0
H        5.62490981      10.31447877      -0.38943104        0
H        4.58282634      11.30756036       0.07933989        0
O       30.29029866      13.84508816      17.43005266        0
H       30.14804640      12.90194087      17.51048474        0
H       29.54611979      14.15698003      16.91512246        0
O        5.48470183      14.28489837      16.63564362        0
H        6.02051292      14.79196481      16.02570761        0
H        4.91949702      14.93363239      17.05507124        0
O        1.89435914      31.04236221      15.56048145        0
H        1.11054035      31.44044265      15.18181021        0
H        1.93117848      30.16829770      15.17203918        0
O       20.38459954      17.40044673       5.84837106        0
H       21.28565930      17.55180940       6.13369982        0
H       20.34403901      17.77942463       4.97032640        0
O       21.85870582      21.22784535      19.01032624        0
H       21.57158248      20.34313371      19.23632920        0
H       22.43705931      21.10740292      18.25717771        0
O        6.33579776      28.00983522      16.22947550        0
H        6.60578856      28.91214483      16.05867101        0
H        5.61635148      28.08909401      16.85585154        0
O        3.42864700      23.59815359      18.90444049        0
H        2.69294115      24.17970820      19.09617720        0
H        3.61099939      23.74009030      17.97555222        0
O       22.53813574      18.90294666      17.28954082        0
H       22.68074313      18.85028986      18.23459227        0
H       22.85572692      18.06547777      16.95188192        0
O       19.29195183      27.74636232      15.28466729        0
H       20.22827139      27.65122039      15.11006619        0
H       19.12500978      28.68450887      15.19387502        0
O        1.63650040      26.73821782       1.26325748        0
H        0.90597750      26.65599140       0.65022653        0
H        1.94918259      27.63515234       1.14506206        0
O       10.80601326      26.12122809       3.38802980        0
H       11.24216099      26.25208968       2.54607835        0
H       11.52149722      26.02846513       4.01708430        0
O       29.11661973      23.28546922      13.98953530        0
H       28.55673434      22.50936231      14.00998664        0
H       28.54437430      24.00153823      14.26523836        0
O        8.22398278      26.01644839       2.30105224        0
H        8.60565834      26.32914934       1.48082439        0
H        8.84035663      26.30029160       2.97614346        0
O       21.67992205      23.17053059       4.50114575        0
H       22.22991318      23.50807608       3.79417711        0
H       21.53226653      22.25271996       4.27299375        0
O        5.61707555       0.39703404      18.37418067        0
H        6.47834905       0.61445390      18.73078745        0
H        5.14663927       1.23049747      18.35804818        0
O       27.62508943      29.09374426       5.87178023        0
H       27.29329270      29.40518211       5.02967024        0
H       28.35090813      29.68321122       6.07659173        0
O       25.90061406       2.25408585      15.74128369        0
H       26.53947193       1.55262573      15.86795717        0
H       26.34865400       2.88861277      15.18193796        0
O       16.04632322       6.44962281       0.91725627        0
H       15.33545614       6.73053725       1.49343932        0
H       16.84383857       6.62726545       1.41589862        0
O       11.21376293      30.71021425       1.72335074        0
H       11.93396358      30.20973575       2.10684016        0
H       10.89033534      30.15822486       1.01135765        0
O       27.88561457      26.26362791      13.58231396        0
H       27.71478510      25.38675689      13.92603818        0
H       27.87347850      26.83031708      14.35364265        0
O       22.04838823      30.81108535      18.66237848        0
H       22.14378841      29.86083736      18.59788505        0
H       22.91115891      31.12073901      18.93801085        0
O       15.57401069      27.50430929       5.87801486        0
H       15.70845899      26.57312803       5.70178503        0
H       16.39050625      27.92103362       5.60250139        0
O       19.61690199       1.84064467       4.08815946        0
H       20.24652191       1.73547083       4.80142593        0
H       18.94000850       2.41377234       4.44812017        0
O       12.46372127      21.90298086      19.66333931        0
H       12.19764450      21.01153458      19.43804280        0
H       13.42019725      21.88314309      19.63184314        0
O       20.29682660       6.82114761      18.50977690        0
H       19.70997088       6.14387525      18.17342238        0
H       21.14194091       6.63007598      18.10295352        0
O        3.66404417      19.86198925      14.90820705        0
H        3.14580172      20.65812404      14.79062307        0
H        3.06475333      19.24547961      15.32891857        0
O        9.85214021       4.19272365      13.38162665        0
H        9.81587315       3.32229794      12.98504674        0
H       10.39261114       4.07798929      14.16326534        0
O       21.72863659       2.60693650      18.02710016        0
H       20.97420889       3.11975950      18.31707130        0
H       22.46464273       2.95850924      18.52802271        0
O        2.48014568      26.37989476      18.41115448        0
H        3.26848887      26.85231380      18.14363421        0
H        2.33250617      25.74372836      17.71134970        0
O        6.52870033       6.81493959      15.09753831        0
H        6.63205894       7.40012590      14.34713454        0
H        7.42047596       6.54311307      15.31451388        0
O       31.04973134      28.89910863      13.98294395        0
H       30.29419673      29.22861947      13.49630044        0
H       30.73469221      28.09811087      14.40173362        0
O       23.15321878      24.54472132       5.81802017        0
H       23.06500983      25.00921526       4.98573633        0
H       23.37579912      25.22712164       6.45128128        0
O       19.05277421      20.99787274      16.12523423        0
H       18.46910698      20.78605466      15.39674436        0
H       18.99553829      21.94962014      16.20969000        0
O       30.09292065      10.89503016      16.72951176        0
H       31.02885798      11.09284294      16.76302687        0
H       29.98611952      10.37389949      15.93374283        0
O       21.52200048      11.60326380       6.01710536        0
H       22.27043504      11.05304387       5.78616040        0
H       21.56019815      11.67232034       6.97104664        0
O       11.23871113       6.98941555       4.68625942        0
H       10.80274470       6.15612700       4.86457182        0
H       10.63565461       7.65249538       5.02223533        0
O       25.35722794      16.69301181      16.94200285        0
H       25.83277036      17.37932481      17.41004741        0
H       25.08295802      17.10655419      16.12347334        0
O       20.57230931      18.43137733      13.54349631        0
H       20.94205454      19.28998241      13.33778383        0
H       20.24061749      18.52072780      14.43693286        0
O       17.16311095       2.00629930       6.31446175        0
H       17.85824385       2.33156513       5.74242659        0
H       16.80351954       1.25083029       5.84949677        0
O       27.66468341      29.70785285      12.76547829        0
H       27.19078400      29.22767072      13.44450429        0
H       28.54549767      29.82174567      13.12244681        0
O       25.77214327      14.36150225      15.96190324        0
H       26.04120273      13.92451045      15.15389519        0
H       24.85429600      14.59093836      15.81648213        0
O        8.78048922      30.58772966       3.95963639        0
H        9.57270001      30.10030537       4.18558210        0
H        8.64198515      31.17745478       4.70076576        0
O       16.41718025      29.75928710      13.92317407        0
H       15.70166611      29.63928668      13.29877734        0
H       16.28598611      29.06970623      14.57394143        0
O       10.83263515      18.74329214      15.66137666        0
H       10.45843245      19.59183193      15.89840916        0
H       11.08004441      18.34815202      16.49736995        0
O       11.45449920      12.60386780       2.08342898        0
H       12.14159753      13.08055116       1.61770297        0
H       11.32930787      13.09547348       2.89514496        0
O       24.56255365      25.62728762      13.90865208        0
H       24.41333781      26.56841936      13.99941284        0
H       25.01294825      25.53558430      13.06902892        0
O       14.29527003       0.66968335       5.34988533        0
H       14.69673111       0.87651090       4.50591660        0
H       14.77957288       1.20026482       5.98247200        0
O       27.09016108      25.04630029      17.40278049        0
H       27.45097099      24.89791981      16.52869166        0
H       27.80163463      25.46365965      17.88842275        0
O       24.60672049      31.06795063      17.58269692        0
H       24.92804693      30.17739975      17.72376531        0
H       24.70745152      31.49685421      18.43247737        0
O       10.06505091      18.36684149       0.10396039        0
H        9.20372619      18.75948945      -0.03809294        0
H       10.67546461      19.10238989       0.05301428        0
O       18.14985239      11.27246834      14.58981423        0
H       18.33919587      11.33933735      13.65391390        0
H       17.44684114      11.90490952      14.73822305        0
O       22.58003501       5.41392830      18.82698761        0
H       22.52368491       4.57147623      19.27791002        0
H       22.06738952       5.29308709      18.02772304        0
O        9.34135766      24.97071657       5.58552148        0
H        9.71527231      25.10275342       6.45671948        0
H        8.44313827      25.29338484       5.65845271        0
O       16.81678737      22.14489038       0.16613303        0
H       16.94119985      21.75980007       1.03357687        0
H       15.86950905      22.25736592       0.08710858        0
O       21.88945173      21.21764332      16.12815721        0
H       21.73033108      21.82802825      16.84811741        0
H       22.14015218      21.77532218      15.39169579        0
O        3.52438580       8.25978371      13.38967068        0
H        3.59592341       7.70595850      14.16709710        0
H        2.59790303       8.49673322      13.34824067        0
O        4.80234022      20.04215555      19.54859417        0
H        5.48896124      19.48526277      19.18164208        0
H        5.20377029      20.44083551      20.32069522        0
O       26.97189331      12.66694761       5.75792335        0
H       27.05062475      11.76204449       5.45595723        0
H       27.75075551      13.10363867       5.41309524        0
O       19.34023915      21.69215473       6.63144364        0
H       19.13016803      22.59806589       6.85821871        0
H       19.97115026      21.76417637       5.91520632        0
O       16.75694093      12.57861068      19.36953316        0
H       16.50033352      12.50246408      18.45051946        0
H       16.52198863      13.47459731      19.61085701        0
O       16.60600057      12.30440729       6.07318262        0
H       15.83427310      12.26586904       6.63814577        0
H       17.26054893      12.77139050       6.59253314        0
O       24.08461041       3.87615655      16.25646232        0
H       23.94017299       3.42610342      15.42410312        0
H       25.03637911       3.94839044      16.32822899        0
O        1.88194234      17.54238192      14.34586383        0
H        2.52269398      17.60905447      15.05383554        0
H        1.19167156      18.15974338      14.58798553        0
O       29.14790034      10.21557967       4.64016696        0
H       28.96341821      10.64906737       5.47340558        0
H       30.06297218       9.94323767       4.70876142        0
O       30.03082256      26.70161536       1.93512429        0
H       30.02780633      27.32074264       1.20512143        0
H       29.78657057      27.22742905       2.69676250        0
O       25.81502318      17.08847145      13.94725708        0
H       26.23754377      16.30502059      13.59524437        0
H       26.03425080      17.08127689      14.87898629        0
O       17.17980873       7.15108745       5.20984871        0
H       17.71483599       6.68145285       4.56998856        0
H       17.75931052       7.83032443       5.55488007        0
O        2.45791362      13.92790409      13.80044628        0
H        3.07958540      14.53411219      14.20327104        0
H        2.70425685      13.06871445      14.14299556        0
O       13.16485329      14.05959197       4.11545971        0
H       13.50563481      14.88553679       4.45884718        0
H       12.21438061      14.17286210       4.11730281        0
O        9.93191446      10.58469904      16.83923030        0
H       10.40189875       9.76296071      16.69748157        0
H        9.64602652      10.85144846      15.96553432        0
O       25.70159517       1.58597219       2.76567081        0
H       25.72820505       1.43473060       3.71047224        0
H       26.60167487       1.44103589       2.47398289        0
O       22.14244317      27.81274450       7.38337609        0
H       22.92621158      28.30628029       7.62495700        0
H       22.47573618      26.97375887       7.06517688        0
O        2.44647131      10.53507645       3.69818657        0
H        2.62687348      10.30531194       4.60972109        0
H        3.23566732      10.27326878       3.22399439        0
O        6.74730693      13.22794541       6.96986712        0
H        5.95610012      13.17792932       6.43346986        0
H        6.55455928      12.68351526       7.73319928        0
O       21.95908506      30.63742517       4.44969992        0
H       22.32165304      31.07973406       5.21725392        0
H       21.36758577      31.28070768       4.05912593        0
O        1.17252891      13.84895226      19.36328276        0
H        0.65437524      13.32433884      19.97363460        0
H        0.54507919      14.46323816      18.98224269        0
O       29.09791476      30.46532043       3.16730399        0
H       28.29110422      30.01770028       2.91250056        0
H       28.93850806      31.38546102       2.95715492        0
O       13.90801939      17.27626160      17.82566909        0
H       13.51981606      18.12148647      17.59956083        0
H       14.84832883      17.40236046      17.69859006        0
O       28.15704840       1.39857966      17.81910944        0
H       27.97499380       0.74769530      18.49692764        0
H       28.96092584       1.82932594      18.10974761        0
O       26.29662425       5.02131128      15.85688848        0
H       26.86342309       4.48797621      16.41413584        0
H       26.26766679       5.87421676      16.29041535        0
O        3.52895844      25.08461608      16.24096659        0
H        3.83252934      25.59184346      16.99382576        0
H        4.10215527      25.35396835      15.52324340        0
O       12.60679486       1.42033841      18.52283015        0
H       13.49856244       1.53497813      18.19443991        0
H       12.61415397       0.55979214      18.94192178        0
O        1.53855526      14.92731976       2.66825256        0
H        1.35054945      14.42345609       3.46009033        0
H        1.15815599      14.40980911       1.95852658        0
O       23.53960725      20.84759759       4.65067932        0
H       23.81228778      21.08289682       5.53753412        0
H       22.73679374      21.34828720       4.50565443        0
O       27.41352861      13.46133714      12.78720660        0
H       27.13523980      12.95271949      13.54884646        0
H       27.40132686      12.83539066      12.06313895        0
O        4.16130685      27.39454090       6.78851942        0
H        5.03182150      27.30163083       6.40147446        0
H        4.25997901      28.09211529       7.43650522        0
O       23.44438783      12.77885053      16.93439578        0
H       24.37646199      12.81950631      17.14844414        0
H       23.41311078      12.86299317      15.98141435        0
O        9.24810676      12.34500330       3.09865620        0
H        9.45286453      13.16317617       3.55131419        0
H        9.53837003      12.48983221       2.19809879        0
O        3.97432083       6.92178973      19.62983808        0
H        4.68125381       7.51601307      19.37809171        0
H        3.17249937       7.41090567      19.44523097        0
O       17.59098252      14.79347429      16.62744548        0
H       17.05404749      15.18477554      17.31651438        0
H       16.99745801      14.19818282      16.16963704        0
O        8.83738260       0.73270625       6.14904467        0
H        8.40483555       1.13423081       5.39544469        0
H        9.70285785       0.48392583       5.82455626        0
O       31.04254547      17.97927369       1.65514528        0
H       31.05869136      17.70730579       0.73753719        0
H       31.93237696      18.28539989       1.83041224        0
O        5.50868183      13.10659674       3.41136838        0
H        5.93940019      13.08024685       2.55695676        0
H        4.61350075      12.81538510       3.23793701        0
O       19.54600743       6.05537244       6.61894479        0
H       19.28168814       5.26501046       6.14809969        0
H       20.46214977       6.18552824       6.37404782        0
O       27.28686329       5.52936972       3.60176841        0
H       27.46096411       5.04254580       4.40732611        0
H       27.92287552       5.18824670       2.97299550        0
O       23.75817721      18.52261806       5.90289501        0
H       24.39921849      19.23243352       5.94110405        0
H       23.40942252      18.56189170       5.01235608        0
O       15.13391718      14.89643395       1.25336211        0
H       14.94100870      15.76498532       0.90032293        0
H       15.51429308      14.41721832       0.51722462        0
O       27.92474044      10.74845981      14.45070036        0
H       27.37532093      10.59303241      15.21895315        0
H       28.67327124      10.16364169      14.56868875        0
O        9.12507096       6.26823512      14.38139927        0
H        9.66348557       5.98032687      13.64420839        0
H        9.75231442       6.61611212      15.01525971        0
O       11.01408545       4.50893287       2.01144304        0
H       11.17978847       4.38613924       2.94616014        0
H       10.23737788       3.97849746       1.83369188        0
O       28.95257008      29.95359251      15.36022838        0
H       28.15209292      30.44431465      15.17405656        0
H       29.51120766      30.10770658      14.59838538        0
O        5.45824065       1.96998896       1.31031321        0
H        5.91715960       2.67604478       1.76540706        0
H        5.88783080       1.17008446       1.61335930        0
O       18.86798676      15.29304133       7.09509582        0
H       19.38503165      15.61015345       6.35459847        0
H       17.96452405      15.51436945       6.86926221        0
O       29.52768599      22.49613126      17.04835623        0
H       29.07646050      21.74182850      17.42737436        0
H       30.18128254      22.11505513      16.46199083        0
O       14.95020096      15.02748294      16.70267559        0
H       13.99546414      14.95944921      16.71166763        0
H       15.25558079      14.12041975      16.71721367        0
O       28.76448776      26.37545908       5.78748955        0
H       29.55806739      25.97746927       5.42962461        0
H       28.06234257      25.77272238       5.54267850        0
O        1.11130361       2.22005564       1.15649198        0
H        1.51606115       1.55953640       1.71873526        0
H        1.73954240       2.34776951       0.44569170        0
O       28.55421425      23.70001680       6.05761091        0
H       28.38136102      24.31854202       5.34783619        0
H       28.65934585      22.85541326       5.61963368        0
O       15.13942168      25.68727830       4.25389350        0
H       14.99322281      24.98532190       4.88801883        0
H       14.43302083      26.31153860       4.41981141        0
O        8.83834508       4.68979278       4.92166599        0
H        8.00315188       5.10017439       4.69745383        0
H        9.21138238       5.25761558       5.59594507        0
O       28.99062421      17.11925470      13.49458587        0
H       28.21234568      17.66237936      13.36996654        0
H       28.64738083      16.26323520      13.75080145        0
O       12.15076578      11.28255530      14.37513701        0
H       12.78977020      10.68581068      14.76475355        0
H       11.95035145      11.90770806      15.07173587        0
O       16.22499915      31.09399934      18.91362689        0
H       15.59242498      31.19400601      18.20223358        0
H       16.71036370      31.91898410      18.92092335        0
O       31.37175892      16.60426319      18.59625110        0
H       31.09275151      15.73128370      18.32003829        0
H       30.55690385      17.09688263      18.69407309        0
O        5.64994681       8.78356451      16.77275488        0
H        5.31747872       9.67932703      16.83025556        0
H        5.82313564       8.53314441      17.68023890        0
O       21.32777166       5.12122863      13.96234294        0
H       21.76930344       4.33200041      14.27603124        0
H       20.40822691       4.98966955      14.19334402        0
O        3.15064342      15.45246091       6.47575524        0
H        4.08828906      15.48951204       6.66464598        0
H        2.86572380      14.61371917       6.83847407        0
O       25.12377098      10.07459395       5.49117167        0
H       25.09644660      10.18147119       4.54034967        0
H       25.98838632      10.39802815       5.74427733        0
O       16.31309764       2.50658115      19.66096164        0
H       17.21128241       2.77601778      19.85305501        0
H       16.34796078       2.17835902      18.76247032        0
O       26.98459258      23.36348916      15.49569205        0
H       27.26992059      22.62432828      16.03277766        0
H       26.18671305      23.05447849      15.06658544        0
O       23.95528260      27.75541169       1.63727228        0
H       23.40443431      28.03892598       0.90760272        0
H       23.48964897      28.05248524       2.41904237        0
O       26.12169266      21.75706979       6.12109849        0
H       25.61916261      22.56702720       6.20864499        0
H       25.54624274      21.16933742       5.63154778        0
O       18.13430689      29.32503554      17.48265420        0
H       18.04539344      29.20662408      16.53697721        0
H       17.23577425      29.30805398      17.81217286        0
O       29.02836373       1.77613277      14.10608251        0
H       29.51930187       1.24500880      13.47909056        0
H       28.63531250       1.13996006      14.70359976        0
O       28.51203624      13.63090774       2.66268608        0
H       28.15043739      13.65326942       1.77669620        0
H       27.97452014      14.24978048       3.15695808        0
O       11.38396471      21.82068030      14.61024991        0
H       11.48346088      22.74420757      14.37910117        0
H       10.43759546      21.67805811      14.62686329        0
O       28.95449612       6.98374220      15.61827823        0
H       29.63318099       7.58026765      15.93415173        0
H       28.44150769       6.76966023      16.39753661        0
O       19.19819654      22.22139232      19.37743229        0
H       18.45284571      21.78223225      18.96777095        0
H       19.86920412      22.24210712      18.69511889        0
O       29.24402635      20.60689287      15.30276128        0
H       29.68508295      21.14606031      14.64625584        0
H       29.01551470      19.80188812      14.83802305        0
O       12.03086318       6.31626107      17.19601859        0
H       11.13148485       6.52338169      16.94214559        0
H       12.54657948       6.47830764      16.40607590        0
O        4.14287615       5.53380047       4.61912071        0
H        4.94984874       5.36991552       5.10714612        0
H        4.07412150       6.48782456       4.58247824        0
O       21.87746778       8.93909299       1.77739783        0
H       21.74327985       8.08521077       1.36616726        0
H       21.76796778       9.56857917       1.06466454        0
O       16.87993258      20.74071020      14.13086652        0
H       16.90441296      20.21594218      14.93102342        0
H       16.91131145      21.64702306      14.43720654        0
O       16.61977680      22.12636435      17.25587850        0
H       16.79781457      21.22976334      17.53985212        0
H       16.69099088      22.09455409      16.30186147        0
O       14.16947870      29.48357253       5.13819357        0
H       14.73375319      28.87318082       4.66359048        0
H       14.00439402      29.05450362       5.97776415        0
O        8.23403593      10.68180631       5.23372135        0
H        7.87416344      11.36934587       5.79408996        0
H        7.58447937      10.57394551       4.53897379        0
O        4.85740963       1.76812035      15.55840127        0
H        5.09599993       1.96316616      14.65216530        0
H        4.07054974       1.22758255      15.48838528        0
O        6.42297950      26.06683343       5.48091073        0
H        6.63893976      26.51112474       4.66103377        0
H        6.41989182      25.13641590       5.25608739        0
O       30.94877227      22.83636060       5.18973236        0
H       30.20394455      23.37702986       5.45267770        0
H       30.82206907      22.69306995       4.25183795        0
O       14.36358536       8.09204629      19.24837523        0
H       14.04065979       8.62248106      19.97679123        0
H       15.29571583       8.30251401      19.19298602        0
O       10.29165451      21.61928477       6.69717816        0
H        9.90713219      21.57712744       5.82162280        0
H       10.43112027      20.70458335       6.94233619        0
O       20.45857923      29.87759029      16.19182434        0
H       20.30608035      29.59074237      17.09220993        0
H       19.58805015      30.09521932      15.85858486        0
O        0.81141091      27.04604937       3.86962202        0
H        1.70047529      26.72427731       4.01881687        0
H        0.63700424      27.62288985       4.61330825        0
O       18.39985342      20.96076971       2.82831017        0
H       18.96319200      20.91231095       2.05595454        0
H       17.51606182      20.81654269       2.49016402        0
O        7.86846019       5.61408301      16.86609884        0
H        7.17015384       4.95944983      16.85865024        0
H        8.50118644       5.28280138      17.50339140        0
O       14.15119861       1.95168973       1.12391054        0
H       13.58048097       2.40754151       0.50527303        0
H       14.53485679       1.23749213       0.61502938        0
O       25.17152198       6.70520701       4.50068364        0
H       24.36169873       7.20306552       4.61273294        0
H       25.76006898       7.04999978       5.17222084        0
O       18.52299548       6.70262783      12.60962074        0
H       18.97331025       6.94527571      13.41867603        0
H       17.70018409       6.31009162      12.90138875        0
O       16.71922520       4.10227406       2.70072728        0
H       16.60346212       4.21047926       1.75673449        0
H       16.11872219       4.73762753       3.09053999        0
O        0.72649016      30.86738162      17.75039122        0
H        0.82254212      30.65752808      16.82143086        0
H        0.46258135      31.78740123      17.76255259        0
2496
Lattice="37.704 0.0 0.0 0.0 37.704 0.0 0.0 0.0 19.766" Properties=species:S:1:pos:R:3:spacegroup_kinds:I:1 spacegroup="P -3 m 1" unit_cell=conventional system=Brucite size=20 n_waters=592 time_s=0.90 pbc="T T T"
Mg       0.00000000       0.00000000       9.88300000        0
O        1.04733333       2.09466667      10.93914560        1
O        2.09466667       1.04733333       8.82685440        1
H        1.04733333       2.09466667      11.93380980        2
H        2.09466667       1.04733333       7.83219020        2
Mg       0.00000000       3.14200000       9.88300000        0
O        1.04733333       5.23666667      10.93914560        1
O        2.09466667       4.18933333       8.82685440        1
H        1.04733333       5.23666667      11.93380980        2
H        2.09466667       4.18933333       7.83219020        2
Mg       3.14200000       0.00000000       9.88300000        0
O        4.18933333       2.09466667      10.93914560        1
O        5.23666667       1.04733333       8.82685440        1
H        4.18933333       2.09466667      11.93380980        2
H        5.23666667       1.04733333       7.83219020        2
Mg       3.14200000       3.14200000       9.88300000        0
O        4.18933333       5.23666667      10.93914560        1
O        5.23666667       4.18933333       8.82685440        1
H        4.18933333       5.23666667      11.93380980        2
H        5.23666667       4.18933333       7.83219020        2
Mg       0.00000000       6.28400000       9.88300000        0
O        1.04733333       8.37866667      10.93914560        1
O        2.09466667       7.33133333       8.82685440        1
H        1.04733333       8.37866667      11.93380980        2
H        2.09466667       7.33133333       7.83219020        2
Mg       0.00000000       9.42600000       9.88300000        0
O        1.04733333      11.52066667      10.93914560        1
O        2.09466667      10.47333333       8.82685440        1
H        1.04733333      11.52066667      11.93380980        2
H        2.09466667      10.47333333       7.83219020        2
Mg       3.14200000       6.28400000       9.88300000        0
O        4.18933333       8.37866667      10.93914560        1
O        5.23666667       7.33133333       8.82685440        1
H        4.18933333       8.37866667      11.93380980        2
H        5.23666667       7.33133333       7.83219020        2
Mg       3.14200000       9.42600000       9.88300000        0
O        4.18933333      11.52066667      10.93914560        1
O        5.23666667      10.47333333       8.82685440        1
H        4.18933333      11.52066667      11.93380980        2
H        5.23666667      10.47333333       7.83219020        2
Mg       0.00000000      12.56800000       9.88300000        0
O        1.04733333      14.66266667      10.93914560        1
O        2.09466667      13.61533333       8.82685440        1
H        1.04733333      14.66266667      11.93380980        2
H        2.09466667      13.61533333       7.83219020        2
Mg       0.00000000      15.71000000       9.88300000        0
O        1.04733333      17.80466667      10.93914560        1
O        2.09466667      16.75733333       8.82685440        1
H        1.04733333      17.80466667      11.93380980        2
H        2.09466667      16.75733333       7.83219020        2
Mg       3.14200000      12.56800000       9.88300000        0
O        4.18933333      14.66266667      10.93914560        1
O        5.23666667      13.61533333       8.82685440        1
H        4.18933333      14.66266667      11.93380980        2
H        5.23666667      13.61533333       7.83219020        2
Mg       3.14200000      15.71000000       9.88300000        0
O        4.18933333      17.80466667      10.93914560        1
O        5.23666667      16.75733333       8.82685440        1
H        4.18933333      17.80466667      11.93380980        2
H        5.23666667      16.75733333       7.83219020        2
Mg       0.00000000      18.85200000       9.88300000        0
O        1.04733333      20.94666667      10.93914560        1
O        2.09466667      19.89933333       8.82685440        1
H        1.04733333      20.94666667      11.93380980        2
H        2.09466667      19.89933333       7.83219020        2
Mg       0.00000000      21.99400000       9.88300000        0
O        1.04733333      24.08866667      10.93914560        1
O        2.09466667      23.04133333       8.82685440        1
H        1.04733333      24.08866667      11.93380980        2
H        2.09466667      23.04133333       7.83219020        2
Mg       3.14200000      18.85200000       9.88300000        0
O        4.18933333      20.94666667      10.93914560        1
O        5.23666667      19.89933333       8.82685440        1
H        4.18933333      20.94666667      11.93380980        2
H        5.23666667      19.89933333       7.83219020        2
Mg       3.14200000      21.99400000       9.88300000        0
O        4.18933333      24.08866667      10.93914560        1
O        5.23666667      23.04133333       8.82685440        1
H        4.18933333      24.08866667      11.93380980        2
H        5.23666667      23.04133333       7.83219020        2
Mg       0.00000000      25.13600000       9.88300000        0
O        1.04733333      27.23066667      10.93914560        1
O        2.09466667      26.18333333       8.82685440        1
H        1.04733333      27.23066667      11.93380980        2
H        2.09466667      26.18333333       7.83219020        2
Mg       0.00000000      28.27800000       9.88300000        0
O        1.04733333      30.37266667      10.93914560        1
O        2.09466667      29.32533333       8.82685440        1
H        1.04733333      30.37266667      11.93380980        2
H        2.09466667      29.32533333       7.83219020        2
Mg       3.14200000      25.13600000       9.88300000        0
O        4.18933333      27.23066667      10.93914560        1
O        5.23666667      26.18333333       8.82685440        1
H        4.18933333      27.23066667      11.93380980        2
H        5.23666667      26.18333333       7.83219020        2
Mg       3.14200000      28.27800000       9.88300000        0
O        4.18933333      30.37266667      10.93914560        1
O        5.23666667      29.32533333       8.82685440        1
H        4.18933333      30.37266667      11.93380980        2
H        5.23666667      29.32533333       7.83219020        2
Mg       0.00000000      31.42000000       9.88300000        0
O        1.04733333      33.51466667      10.93914560        1
O        2.09466667      32.46733333       8.82685440        1
H        1.04733333      33.51466667      11.93380980        2
H        2.09466667      32.46733333       7.83219020        2
Mg       0.00000000      34.56200000       9.88300000        0
O        1.04733333      36.65666667      10.93914560        1
O        2.09466667      35.60933333       8.82685440        1
H        1.04733333      36.65666667      11.93380980        2
H        2.09466667      35.60933333       7.83219020        2
Mg       3.14200000      31.42000000       9.88300000        0
O        4.18933333      33.51466667      10.93914560        1
O        5.23666667      32.46733333       8.82685440        1
H        4.18933333      33.51466667      11.93380980        2
H        5.23666667      32.46733333       7.83219020        2
Mg       3.14200000      34.56200000       9.88300000        0
O        4.18933333      36.65666667      10.93914560        1
O        5.23666667      35.60933333       8.82685440        1
H        4.18933333      36.65666667      11.93380980        2
H        5.23666667      35.60933333       7.83219020        2
Mg       6.28400000       0.00000000       9.88300000        0
O        7.33133333       2.09466667      10.93914560        1
O        8.37866667       1.04733333       8.82685440        1
H        7.33133333       2.09466667      11.93380980        2
H        8.37866667       1.04733333       7.83219020        2
Mg       6.28400000       3.14200000       9.88300000        0
O        7.33133333       5.23666667      10.93914560        1
O        8.37866667       4.18933333       8.82685440        1
H        7.33133333       5.23666667      11.93380980        2
H        8.37866667       4.18933333       7.83219020        2
Mg       9.42600000       0.00000000       9.88300000        0
O       10.47333333       2.09466667      10.93914560        1
O       11.52066667       1.04733333       8.82685440        1
H       10.47333333       2.09466667      11.93380980        2
H       11.52066667       1.04733333       7.83219020        2
Mg       9.42600000       3.14200000       9.88300000        0
O       10.47333333       5.23666667      10.93914560        1
O       11.52066667       4.18933333       8.82685440        1
H       10.47333333       5.23666667      11.93380980        2
H       11.52066667       4.18933333       7.83219020        2
Mg       6.28400000       6.28400000       9.88300000        0
O        7.33133333       8.37866667      10.93914560        1
O        8.37866667       7.33133333       8.82685440        1
H        7.33133333       8.37866667      11.93380980        2
H        8.37866667       7.33133333       7.83219020        2
Mg       6.28400000       9.42600000       9.88300000        0
O        7.33133333      11.52066667      10.93914560        1
O        8.37866667      10.47333333       8.82685440        1
H        7.33133333      11.52066667      11.93380980        2
H        8.37866667      10.47333333       7.83219020        2
Mg       9.42600000       6.28400000       9.88300000        0
O       10.47333333       8.37866667      10.93914560        1
O       11.52066667       7.33133333       8.82685440        1
H       10.47333333       8.37866667      11.93380980        2
H       11.52066667       7.33133333       7.83219020        2
Mg       9.42600000       9.42600000       9.88300000        0
O       10.47333333      11.52066667      10.93914560        1
O       11.52066667      10.47333333       8.82685440        1
H       10.47333333      11.52066667      11.93380980        2
H       11.52066667      10.47333333       7.83219020        2
Mg       6.28400000      12.56800000       9.88300000        0
O        7.33133333      14.66266667      10.93914560        1
O        8.37866667      13.61533333       8.82685440        1
H        7.33133333      14.66266667      11.93380980        2
H        8.37866667      13.61533333       7.83219020        2
Mg       6.28400000      15.71000000       9.88300000        0
O        7.33133333      17.80466667      10.93914560        1
O        8.37866667      16.75733333       8.82685440        1
H        7.33133333      17.80466667      11.93380980        2
H        8.37866667      16.75733333       7.83219020        2
Mg       9.42600000      12.56800000       9.88300000        0
O       10.47333333      14.66266667      10.93914560        1
O       11.52066667      13.61533333       8.82685440        1
H       10.47333333      14.66266667      11.93380980        2
H       11.52066667      13.61533333       7.83219020        2
Mg       9.42600000      15.71000000       9.88300000        0
O       10.47333333      17.80466667      10.93914560        1
O       11.52066667      16.75733333       8.82685440        1
H       10.47333333      17.80466667      11.93380980        2
H       11.52066667      16.75733333       7.83219020        2
Mg       6.28400000      18.85200000       9.88300000        0
O        7.33133333      20.94666667      10.93914560        1
O        8.37866667      19.89933333       8.82685440        1
H        7.33133333      20.94666667      11.93380980        2
H        8.37866667      19.89933333       7.83219020        2
Mg       6.28400000      21.99400000       9.88300000        0
O        7.33133333      24.08866667      10.93914560        1
O        8.37866667      23.04133333       8.82685440        1
H        7.33133333      24.08866667      11.93380980        2
H        8.37866667      23.04133333       7.83219020        2
Mg       9.42600000      18.85200000       9.88300000        0
O       10.47333333      20.94666667      10.93914560        1
O       11.52066667      19.89933333       8.82685440        1
H       10.47333333      20.94666667      11.93380980        2
H       11.52066667      19.89933333       7.83219020        2
Mg       9.42600000      21.99400000       9.88300000        0
O       10.47333333      24.08866667      10.93914560        1
O       11.52066667      23.04133333       8.82685440        1
H       10.47333333      24.08866667      11.93380980        2
H       11.52066667      23.04133333       7.83219020        2
Mg       6.28400000      25.13600000       9.88300000        0
O        7.33133333      27.23066667      10.93914560        1
O        8.37866667      26.18333333       8.82685440        1
H        7.33133333      27.23066667      11.93380980        2
H        8.37866667      26.18333333       7.83219020        2
Mg       6.28400000      28.27800000       9.88300000        0
O        7.33133333      30.37266667      10.93914560        1
O        8.37866667      29.32533333       8.82685440        1
H        7.33133333      30.37266667      11.93380980        2
H        8.37866667      29.32533333       7.83219020        2
Mg       9.42600000      25.13600000       9.88300000        0
O       10.47333333      27.23066667      10.93914560        1
O       11.52066667      26.18333333       8.82685440        1
H       10.47333333      27.23066667      11.93380980        2
H       11.52066667      26.18333333       7.83219020        2
Mg       9.42600000      28.27800000       9.88300000        0
O       10.47333333      30.37266667      10.93914560        1
O       11.52066667      29.32533333       8.82685440        1
H       10.47333333      30.37266667      11.93380980        2
H       11.52066667      29.32533333       7.83219020        2
Mg       6.28400000      31.42000000       9.88300000        0
O        7.33133333      33.51466667      10.93914560        1
O        8.37866667      32.46733333       8.82685440        1
H        7.33133333      33.51466667      11.93380980        2
H        8.37866667      32.46733333       7.83219020        2
Mg       6.28400000      34.56200000       9.88300000        0
O        7.33133333      36.65666667      10.93914560        1
O        8.37866667      35.60933333       8.82685440        1
H        7.33133333      36.65666667      11.93380980        2
H        8.37866667      35.60933333       7.83219020        2
Mg       9.42600000      31.42000000       9.88300000        0
O       10.47333333      33.51466667      10.93914560        1
O       11.52066667      32.46733333       8.82685440        1
H       10.47333333      33.51466667      11.93380980        2
H       11.52066667      32.46733333       7.83219020        2
Mg       9.42600000      34.56200000       9.88300000        0
O       10.47333333      36.65666667      10.93914560        1
O       11.52066667      35.60933333       8.82685440        1
H       10.47333333      36.65666667      11.93380980        2
H       11.52066667      35.60933333       7.83219020        2
Mg      12.56800000       0.00000000       9.88300000        0
O       13.61533333       2.09466667      10.93914560        1
O       14.66266667       1.04733333       8.82685440        1
H       13.61533333       2.09466667      11.93380980        2
H       14.66266667       1.04733333       7.83219020        2
Mg      12.56800000       3.14200000       9.88300000        0
O       13.61533333       5.23666667      10.93914560        1
O       14.66266667       4.18933333       8.82685440        1
H       13.61533333       5.23666667      11.93380980        2
H       14.66266667       4.18933333       7.83219020        2
Mg      15.71000000       0.00000000       9.88300000        0
O       16.75733333       2.09466667      10.93914560        1
O       17.80466667       1.04733333       8.82685440        1
H       16.75733333       2.09466667      11.93380980        2
H       17.80466667       1.04733333       7.83219020        2
Mg      15.71000000       3.14200000       9.88300000        0
O       16.75733333       5.23666667      10.93914560        1
O       17.80466667       4.18933333       8.82685440        1
H       16.75733333       5.23666667      11.93380980        2
H       17.80466667       4.18933333       7.83219020        2
Mg      12.56800000       6.28400000       9.88300000        0
O       13.61533333       8.37866667      10.93914560        1
O       14.66266667       7.33133333       8.82685440        1
H       13.61533333       8.37866667      11.93380980        2
H       14.66266667       7.33133333       7.83219020        2
Mg      12.56800000       9.42600000       9.88300000        0
O       13.61533333      11.52066667      10.93914560        1
O       14.66266667      10.47333333       8.82685440        1
H       13.61533333      11.52066667      11.93380980        2
H       14.66266667      10.47333333       7.83219020        2
Mg      15.71000000       6.28400000       9.88300000        0
O       16.75733333       8.37866667      10.93914560        1
O       17.80466667       7.33133333       8.82685440        1
H       16.75733333       8.37866667      11.93380980        2
H       17.80466667       7.33133333       7.83219020        2
Mg      15.71000000       9.42600000       9.88300000        0
O       16.75733333      11.52066667      10.93914560        1
O       17.80466667      10.47333333       8.82685440        1
H       16.75733333      11.52066667      11.93380980        2
H       17.80466667      10.47333333       7.83219020        2
Mg      12.56800000      12.56800000       9.88300000        0
O       13.61533333      14.66266667      10.93914560        1
O       14.66266667      13.61533333       8.82685440        1
H       13.61533333      14.66266667      11.93380980        2
H       14.66266667      13.61533333       7.83219020        2
Mg      12.56800000      15.71000000       9.88300000        0
O       13.61533333      17.80466667      10.93914560        1
O       14.66266667      16.75733333       8.82685440        1
H       13.61533333      17.80466667      11.93380980        2
H       14.66266667      16.75733333       7.83219020        2
Mg      15.71000000      12.56800000       9.88300000        0
O       16.75733333      14.66266667      10.93914560        1
O       17.80466667      13.61533333       8.82685440        1
H       16.75733333      14.66266667      11.93380980        2
H       17.80466667      13.61533333       7.83219020        2
Mg      15.71000000      15.71000000       9.88300000        0
O       16.75733333      17.80466667      10.93914560        1
O       17.80466667      16.75733333       8.82685440        1
H       16.75733333      17.80466667      11.93380980        2
H       17.80466667      16.75733333       7.83219020        2
Mg      12.56800000      18.85200000       9.88300000        0
O       13.61533333      20.94666667      10.93914560        1
O       14.66266667      19.89933333       8.82685440        1
H       13.61533333      20.94666667      11.93380980        2
H       14.66266667      19.89933333       7.83219020        2
Mg      12.56800000      21.99400000       9.88300000        0
O       13.61533333      24.08866667      10.93914560        1
O       14.66266667      23.04133333       8.82685440        1
H       13.61533333      24.08866667      11.93380980        2
H       14.66266667      23.04133333       7.83219020        2
Mg      15.71000000      18.85200000       9.88300000        0
O       16.75733333      20.94666667      10.93914560        1
O       17.80466667      19.89933333       8.82685440        1
H       16.75733333      20.94666667      11.93380980        2
H       17.80466667      19.89933333       7.83219020        2
Mg      15.71000000      21.99400000       9.88300000        0
O       16.75733333      24.08866667      10.93914560        1
O       17.80466667      23.04133333       8.82685440        1
H       16.75733333      24.08866667      11.93380980        2
H       17.80466667      23.04133333       7.83219020        2
Mg      12.56800000      25.13600000       9.88300000        0
O       13.61533333      27.23066667      10.93914560        1
O       14.66266667      26.18333333       8.82685440        1
H       13.61533333      27.23066667      11.93380980        2
H       14.66266667      26.18333333       7.83219020        2
Mg      12.56800000      28.27800000       9.88300000        0
O       13.61533333      30.37266667      10.93914560        1
O       14.66266667      29.32533333       8.82685440        1
H       13.61533333      30.37266667      11.93380980        2
H       14.66266667      29.32533333       7.83219020        2
Mg      15.71000000      25.13600000       9.88300000        0
O       16.75733333      27.23066667      10.93914560        1
O       17.80466667      26.18333333       8.82685440        1
H       16.75733333      27.23066667      11.93380980        2
H       17.80466667      26.18333333       7.83219020        2
Mg      15.71000000      28.27800000       9.88300000        0
O       16.75733333      30.37266667      10.93914560        1
O       17.80466667      29.32533333       8.82685440        1
H       16.75733333      30.37266667      11.93380980        2
H       17.80466667      29.32533333       7.83219020        2
Mg      12.56800000      31.42000000       9.88300000        0
O       13.61533333      33.51466667      10.93914560        1
O       14.66266667      32.46733333       8.82685440        1
H       13.61533333      33.51466667      11.93380980        2
H       14.66266667      32.46733333       7.83219020        2
Mg      12.56800000      34.56200000       9.88300000        0
O       13.61533333      36.65666667      10.93914560        1
O       14.66266667      35.60933333       8.82685440        1
H       13.61533333      36.65666667      11.93380980        2
H       14.66266667      35.60933333       7.83219020        2
Mg      15.71000000      31.42000000       9.88300000        0
O       16.75733333      33.51466667      10.93914560        1
O       17.80466667      32.46733333       8.82685440        1
H       16.75733333      33.51466667      11.93380980        2
H       17.80466667      32.46733333       7.83219020        2
Mg      15.71000000      34.56200000       9.88300000        0
O       16.75733333      36.65666667      10.93914560        1
O       17.80466667      35.60933333       8.82685440        1
H       16.75733333      36.65666667      11.93380980        2
H       17.80466667      35.60933333       7.83219020        2
Mg      18.85200000       0.00000000       9.88300000        0
O       19.89933333       2.09466667      10.93914560        1
O       20.94666667       1.04733333       8.82685440        1
H       19.89933333       2.09466667      11.93380980        2
H       20.94666667       1.04733333       7.83219020        2
Mg      18.85200000       3.14200000       9.88300000        0
O       19.89933333       5.23666667      10.93914560        1
O       20.94666667       4.18933333       8.82685440        1
H       19.89933333       5.23666667      11.93380980        2
H       20.94666667       4.18933333       7.83219020        2
Mg      21.99400000       0.00000000       9.88300000        0
O       23.04133333       2.09466667      10.93914560        1
O       24.08866667       1.04733333       8.82685440        1
H       23.04133333       2.09466667      11.93380980        2
H       24.08866667       1.04733333       7.83219020        2
Mg      21.99400000       3.14200000       9.88300000        0
O       23.04133333       5.23666667      10.93914560        1
O       24.08866667       4.18933333       8.82685440        1
H       23.04133333       5.23666667      11.93380980        2
H       24.08866667       4.18933333       7.83219020        2
Mg      18.85200000       6.28400000       9.88300000        0
O       19.89933333       8.37866667      10.93914560        1
O       20.94666667       7.33133333       8.82685440        1
H       19.89933333       8.37866667      11.93380980        2
H       20.94666667       7.33133333       7.83219020        2
Mg      18.85200000       9.42600000       9.88300000        0
O       19.89933333      11.52066667      10.93914560        1
O       20.94666667      10.47333333       8.82685440        1
H       19.89933333      11.52066667      11.93380980        2
H       20.94666667      10.47333333       7.83219020        2
Mg      21.99400000       6.28400000       9.88300000        0
O       23.04133333       8.37866667      10.93914560        1
O       24.08866667       7.33133333       8.82685440        1
H       23.04133333       8.37866667      11.93380980        2
H       24.08866667       7.33133333       7.83219020        2
Mg      21.99400000       9.42600000       9.88300000        0
O       23.04133333      11.52066667      10.93914560        1
O       24.08866667      10.47333333       8.82685440        1
H       23.04133333      11.52066667      11.93380980        2
H       24.08866667      10.47333333       7.83219020        2
Mg      18.85200000      12.56800000       9.88300000        0
O       19.89933333      14.66266667      10.93914560        1
O       20.94666667      13.61533333       8.82685440        1
H       19.89933333      14.66266667      11.93380980        2
H       20.94666667      13.61533333       7.83219020        2
Mg      18.85200000      15.71000000       9.88300000        0
O       19.89933333      17.80466667      10.93914560        1
O       20.94666667      16.75733333       8.82685440        1
H       19.89933333      17.80466667      11.93380980        2
H       20.94666667      16.75733333       7.83219020        2
Mg      21.99400000      12.56800000       9.88300000        0
O       23.04133333      14.66266667      10.93914560        1
O       24.08866667      13.61533333       8.82685440        1
H       23.04133333      14.66266667      11.93380980        2
H       24.08866667      13.61533333       7.83219020        2
Mg      21.99400000      15.71000000       9.88300000        0
O       23.04133333      17.80466667      10.93914560        1
O       24.08866667      16.75733333       8.82685440        1
H       23.04133333      17.80466667      11.93380980        2
H       24.08866667      16.75733333       7.83219020        2
Mg      18.85200000      18.85200000       9.88300000        0
O       19.89933333      20.94666667      10.93914560        1
O       20.94666667      19.89933333       8.82685440        1
H       19.89933333      20.94666667      11.93380980        2
H       20.94666667      19.89933333       7.83219020        2
Mg      18.85200000      21.99400000       9.88300000        0
O       19.89933333      24.08866667      10.93914560        1
O       20.94666667      23.04133333       8.82685440        1
H       19.89933333      24.08866667      11.93380980        2
H       20.94666667      23.04133333       7.83219020        2
Mg      21.99400000      18.85200000       9.88300000        0
O       23.04133333      20.94666667      10.93914560        1
O       24.08866667      19.89933333       8.82685440        1
H       23.04133333      20.94666667      11.93380980        2
H       24.08866667      19.89933333       7.83219020        2
Mg      21.99400000      21.99400000       9.88300000        0
O       23.04133333      24.08866667      10.93914560        1
O       24.08866667      23.04133333       8.82685440        1
H       23.04133333      24.08866667      11.93380980        2
H       24.08866667      23.04133333       7.83219020        2
Mg      18.85200000      25.13600000       9.88300000        0
O       19.89933333      27.23066667      10.93914560        1
O       20.94666667      26.18333333       8.82685440        1
H       19.89933333      27.23066667      11.93380980        2
H       20.94666667      26.18333333       7.83219020        2
Mg      18.85200000      28.27800000       9.88300000        0
O       19.89933333      30.37266667      10.93914560        1
O       20.94666667      29.32533333       8.82685440        1
H       19.89933333      30.37266667      11.93380980        2
H       20.94666667      29.32533333       7.83219020        2
Mg      21.99400000      25.13600000       9.88300000        0
O       23.04133333      27.23066667      10.93914560        1
O       24.08866667      26.18333333       8.82685440        1
H       23.04133333      27.23066667      11.93380980        2
H       24.08866667      26.18333333       7.83219020        2
Mg      21.99400000      28.27800000       9.88300000        0
O       23.04133333      30.37266667      10.93914560        1
O       24.08866667      29.32533333       8.82685440        1
H       23.04133333      30.37266667      11.93380980        2
H       24.08866667      29.32533333       7.83219020        2
Mg      18.85200000      31.42000000       9.88300000        0
O       19.89933333      33.51466667      10.93914560        1
O       20.94666667      32.46733333       8.82685440        1
H       19.89933333      33.51466667      11.93380980        2
H       20.94666667      32.46733333       7.83219020        2
Mg      18.85200000      34.56200000       9.88300000        0
O       19.89933333      36.65666667      10.93914560        1
O       20.94666667      35.60933333       8.82685440        1
H       19.89933333      36.65666667      11.93380980        2
H       20.94666667      35.60933333       7.83219020        2
Mg      21.99400000      31.42000000       9.88300000        0
O       23.04133333      33.51466667      10.93914560        1
O       24.08866667      32.46733333       8.82685440        1
H       23.04133333      33.51466667      11.93380980        2
H       24.08866667      32.46733333       7.83219020        2
Mg      21.99400000      34.56200000       9.88300000        0
O       23.04133333      36.65666667      10.93914560        1
O       24.08866667      35.60933333       8.82685440        1
H       23.04133333      36.65666667      11.93380980        2
H       24.08866667      35.60933333       7.83219020        2
Mg      25.13600000       0.00000000       9.88300000        0
O       26.18333333       2.09466667      10.93914560        1
O       27.23066667       1.04733333       8.82685440        1
H       26.18333333       2.09466667      11.93380980        2
H       27.23066667       1.04733333       7.83219020        2
Mg      25.13600000       3.14200000       9.88300000        0
O       26.18333333       5.23666667      10.93914560        1
O       27.23066667       4.18933333       8.82685440        1
H       26.18333333       5.23666667      11.93380980        2
H       27.23066667       4.18933333       7.83219020        2
Mg      28.27800000       0.00000000       9.88300000        0
O       29.32533333       2.09466667      10.93914560        1
O       30.37266667       1.04733333       8.82685440        1
H       29.32533333       2.09466667      11.93380980        2
H       30.37266667       1.04733333       7.83219020        2
Mg      28.27800000       3.14200000       9.88300000        0
O       29.32533333       5.23666667      10.93914560        1
O       30.37266667       4.18933333       8.82685440        1
H       29.32533333       5.23666667      11.93380980        2
H       30.37266667       4.18933333       7.83219020        2
Mg      25.13600000       6.28400000       9.88300000        0
O       26.18333333       8.37866667      10.93914560        1
O       27.23066667       7.33133333       8.82685440        1
H       26.18333333       8.37866667      11.93380980        2
H       27.23066667       7.33133333       7.83219020        2
Mg      25.13600000       9.42600000       9.88300000        0
O       26.18333333      11.52066667      10.93914560        1
O       27.23066667      10.47333333       8.82685440        1
H       26.18333333      11.52066667      11.93380980        2
H       27.23066667      10.47333333       7.83219020        2
Mg      28.27800000       6.28400000       9.88300000        0
O       29.32533333       8.37866667      10.93914560        1
O       30.37266667       7.33133333       8.82685440        1
H       29.32533333       8.37866667      11.93380980        2
H       30.37266667       7.33133333       7.83219020        2
Mg      28.27800000       9.42600000       9.88300000        0
O       29.32533333      11.52066667      10.93914560        1
O       30.37266667      10.47333333       8.82685440        1
H       29.32533333      11.52066667      11.93380980        2
H       30.37266667      10.47333333       7.83219020        2
Mg      25.13600000      12.56800000       9.88300000        0
O       26.18333333      14.66266667      10.93914560        1
O       27.23066667      13.61533333       8.82685440        1
H       26.18333333      14.66266667      11.93380980        2
H       27.23066667      13.61533333       7.83219020        2
Mg      25.13600000      15.71000000       9.88300000        0
O       26.18333333      17.80466667      10.93914560        1
O       27.23066667      16.75733333       8.82685440        1
H       26.18333333      17.80466667      11.93380980        2
H       27.23066667      16.75733333       7.83219020        2
Mg      28.27800000      12.56800000       9.88300000        0
O       29.32533333      14.66266667      10.93914560        1
O       30.37266667      13.61533333       8.82685440        1
H       29.32533333      14.66266667      11.93380980        2
H       30.37266667      13.61533333       7.83219020        2
Mg      28.27800000      15.71000000       9.88300000        0
O       29.32533333      17.80466667      10.93914560        1
O       30.37266667      16.75733333       8.82685440        1
H       29.32533333      17.80466667      11.93380980        2
H       30.37266667      16.75733333       7.83219020        2
Mg      25.13600000      18.85200000       9.88300000        0
O       26.18333333      20.94666667      10.93914560        1
O       27.23066667      19.89933333       8.82685440        1
H       26.18333333      20.94666667      11.93380980        2
H       27.23066667      19.89933333       7.83219020        2
Mg      25.13600000      21.99400000       9.88300000        0
O       26.18333333      24.08866667      10.93914560        1
O       27.23066667      23.04133333       8.82685440        1
H       26.18333333      24.08866667      11.93380980        2
H       27.23066667      23.04133333       7.83219020        2
Mg      28.27800000      18.85200000       9.88300000        0
O       29.32533333      20.94666667      10.93914560        1
O       30.37266667      19.89933333       8.82685440        1
H       29.32533333      20.94666667      11.93380980        2
H       30.37266667      19.89933333       7.83219020        2
Mg      28.27800000      21.99400000       9.88300000        0
O       29.32533333      24.08866667      10.93914560        1
O       30.37266667      23.04133333       8.82685440        1
H       29.32533333      24.08866667      11.93380980        2
H       30.37266667      23.04133333       7.83219020        2
Mg      25.13600000      25.13600000       9.88300000        0
O       26.18333333      27.23066667      10.93914560        1
O       27.23066667      26.18333333       8.82685440        1
H       26.18333333      27.23066667      11.93380980        2
H       27.23066667      26.18333333       7.83219020        2
Mg      25.13600000      28.27800000       9.88300000        0
O       26.18333333      30.37266667      10.93914560        1
O       27.23066667      29.32533333       8.82685440        1
H       26.18333333      30.37266667      11.93380980        2
H       27.23066667      29.32533333       7.83219020        2
Mg      28.27800000      25.13600000       9.88300000        0
O       29.32533333      27.23066667      10.93914560        1
O       30.37266667      26.18333333       8.82685440        1
H       29.32533333      27.23066667      11.93380980        2
H       30.37266667      26.18333333       7.83219020        2
Mg      28.27800000      28.27800000       9.88300000        0
O       29.32533333      30.37266667      10.93914560        1
O       30.37266667      29.32533333       8.82685440        1
H       29.32533333      30.37266667      11.93380980        2
H       30.37266667      29.32533333       7.83219020        2
Mg      25.13600000      31.42000000       9.88300000        0
O       26.18333333      33.51466667      10.93914560        1
O       27.23066667      32.46733333       8.82685440        1
H       26.18333333      33.51466667      11.93380980        2
H       27.23066667      32.46733333       7.83219020        2
Mg      25.13600000      34.56200000       9.88300000        0
O       26.18333333      36.65666667      10.93914560        1
O       27.23066667      35.60933333       8.82685440        1
H       26.18333333      36.65666667      11.93380980        2
H       27.23066667      35.60933333       7.83219020        2
Mg      28.27800000      31.42000000       9.88300000        0
O       29.32533333      33.51466667      10.93914560        1
O       30.37266667      32.46733333       8.82685440        1
H       29.32533333      33.51466667      11.93380980        2
H       30.37266667      32.46733333       7.83219020        2
Mg      28.27800000      34.56200000       9.88300000        0
O       29.32533333      36.65666667      10.93914560        1
O       30.37266667      35.60933333       8.82685440        1
H       29.32533333      36.65666667      11.93380980        2
H       30.37266667      35.60933333       7.83219020        2
Mg      31.42000000       0.00000000       9.88300000        0
O       32.46733333       2.09466667      10.93914560        1
O       33.51466667       1.04733333       8.82685440        1
H       32.46733333       2.09466667      11.93380980        2
H       33.51466667       1.04733333       7.83219020        2
Mg      31.42000000       3.14200000       9.88300000        0
O       32.46733333       5.23666667      10.93914560        1
O       33.51466667       4.18933333       8.82685440        1
H       32.46733333       5.23666667      11.93380980        2
H       33.51466667       4.18933333       7.83219020        2
Mg      34.56200000       0.00000000       9.88300000        0
O       35.60933333       2.09466667      10.93914560        1
O       36.65666667       1.04733333       8.82685440        1
H       35.60933333       2.09466667      11.93380980        2
H       36.65666667       1.04733333       7.83219020        2
Mg      34.56200000       3.14200000       9.88300000        0
O       35.60933333       5.23666667      10.93914560        1
O       36.65666667       4.18933333       8.82685440        1
H       35.60933333       5.23666667      11.93380980        2
H       36.65666667       4.18933333       7.83219020        2
Mg      31.42000000       6.28400000       9.88300000        0
O       32.46733333       8.37866667      10.93914560        1
O       33.51466667       7.33133333       8.82685440        1
H       32.46733333       8.37866667      11.93380980        2
H       33.51466667       7.33133333       7.83219020        2
Mg      31.42000000       9.42600000       9.88300000        0
O       32.46733333      11.52066667      10.93914560        1
O       33.51466667      10.47333333       8.82685440        1
H       32.46733333      11.52066667      11.93380980        2
H       33.51466667      10.47333333       7.83219020        2
Mg      34.56200000       6.28400000       9.88300000        0
O       35.60933333       8.37866667      10.93914560        1
O       36.65666667       7.33133333       8.82685440        1
H       35.60933333       8.37866667      11.93380980        2
H       36.65666667       7.33133333       7.83219020        2
Mg      34.56200000       9.42600000       9.88300000        0
O       35.60933333      11.52066667      10.93914560        1
O       36.65666667      10.47333333       8.82685440        1
H       35.60933333      11.52066667      11.93380980        2
H       36.65666667      10.47333333       7.83219020        2
Mg      31.42000000      12.56800000       9.88300000        0
O       32.46733333      14.66266667      10.93914560        1
O       33.51466667      13.61533333       8.82685440        1
H       32.46733333      14.66266667      11.93380980        2
H       33.51466667      13.61533333       7.83219020        2
Mg      31.42000000      15.71000000       9.88300000        0
O       32.46733333      17.80466667      10.93914560        1
O       33.51466667      16.75733333       8.82685440        1
H       32.46733333      17.80466667      11.93380980        2
H       33.51466667      16.75733333       7.83219020        2
Mg      34.56200000      12.56800000       9.88300000        0
O       35.60933333      14.66266667      10.93914560        1
O       36.65666667      13.61533333       8.82685440        1
H       35.60933333      14.66266667      11.93380980        2
H       36.65666667      13.61533333       7.83219020        2
Mg      34.56200000      15.71000000       9.88300000        0
O       35.60933333      17.80466667      10.93914560        1
O       36.65666667      16.75733333       8.82685440        1
H       35.60933333      17.80466667      11.93380980        2
H       36.65666667      16.75733333       7.83219020        2
Mg      31.42000000      18.85200000       9.88300000        0
O       32.46733333      20.94666667      10.93914560        1
O       33.51466667      19.89933333       8.82685440        1
H       32.46733333      20.94666667      11.93380980        2
H       33.51466667      19.89933333       7.83219020        2
Mg      31.42000000      21.99400000       9.88300000        0
O       32.46733333      24.08866667      10.93914560        1
O       33.51466667      23.04133333       8.82685440        1
H       32.46733333      24.08866667      11.93380980        2
H       33.51466667      23.04133333       7.83219020        2
Mg      34.56200000      18.85200000       9.88300000        0
O       35.60933333      20.94666667      10.93914560        1
O       36.65666667      19.89933333       8.82685440        1
H       35.60933333      20.94666667      11.93380980        2
H       36.65666667      19.89933333       7.83219020        2
Mg      34.56200000      21.99400000       9.88300000        0
O       35.60933333      24.08866667      10.93914560        1
O       36.65666667      23.04133333       8.82685440        1
H       35.60933333      24.08866667      11.93380980        2
H       36.65666667      23.04133333       7.83219020        2
Mg      31.42000000      25.13600000       9.88300000        0
O       32.46733333      27.23066667      10.93914560        1
O       33.51466667      26.18333333       8.82685440        1
H       32.46733333      27.23066667      11.93380980        2
H       33.51466667      26.18333333       7.83219020        2
Mg      31.42000000      28.27800000       9.88300000        0
O       32.46733333      30.37266667      10.93914560        1
O       33.51466667      29.32533333       8.82685440        1
H       32.46733333      30.37266667      11.93380980        2
H       33.51466667      29.32533333       7.83219020        2
Mg      34.56200000      25.13600000       9.88300000        0
O       35.60933333      27.23066667      10.93914560        1
O       36.65666667      26.18333333       8.82685440        1
H       35.60933333      27.23066667      11.93380980        2
H       36.65666667      26.18333333       7.83219020        2
Mg      34.56200000      28.27800000       9.88300000        0
O       35.60933333      30.37266667      10.93914560        1
O       36.65666667      29.32533333       8.82685440        1
H       35.60933333      30.37266667      11.93380980        2
H       36.65666667      29.32533333       7.83219020        2
Mg      31.42000000      31.42000000       9.88300000        0
O       32.46733333      33.51466667      10.93914560        1
O       33.51466667      32.46733333       8.82685440        1
H       32.46733333      33.51466667      11.93380980        2
H       33.51466667      32.46733333       7.83219020        2
Mg      31.42000000      34.56200000       9.88300000        0
O       32.46733333      36.65666667      10.93914560        1
O       33.51466667      35.60933333       8.82685440        1
H       32.46733333      36.65666667      11.93380980        2
H       33.51466667      35.60933333       7.83219020        2
Mg      34.56200000      31.42000000       9.88300000        0
O       35.60933333      33.51466667      10.93914560        1
O       36.65666667      32.46733333       8.82685440        1
H       35.60933333      33.51466667      11.93380980        2
H       36.65666667      32.46733333       7.83219020        2
Mg      34.56200000      34.56200000       9.88300000        0
O       35.60933333      36.65666667      10.93914560        1
O       36.65666667      35.60933333       8.82685440        1
H       35.60933333      36.65666667      11.93380980        2
H       36.65666667      35.60933333       7.83219020        2
O       18.07265791      15.51206818      15.15348986        0
H       18.40452816      15.17115021      14.32290639        0
H       18.30386756      14.84250196      15.79727166        0
O       27.92611074      28.23319516      17.38101655        0
H       28.16909414      27.77053490      18.18297440        0
H       28.41365065      29.05593300      17.42150278        0
O       27.01483328      19.34957868      13.09085700        0
H       27.73984465      18.75021521      12.91378702        0
H       26.32439042      18.79179858      13.44918906        0
O       35.45505324      23.39177049       5.81900810        0
H       36.36577185      23.63542189       5.65330521        0
H       35.45309782      23.06916011       6.72020206        0
O       16.12918471      24.32087512      15.56883419        0
H       16.33751525      25.23357395      15.76836133        0
H       16.92324758      23.97748029      15.15922952        0
O        6.02033839      13.38872686       4.95994475        0
H        5.24469335      13.42452046       4.40018995        0
H        6.75667304      13.36829838       4.34869536        0
O        7.82059270       5.19416598       0.23406637        0
H        8.30461710       4.99804536       1.03624398        0
H        8.01934540       4.46309005      -0.35096114        0
O       31.35306415      13.19312331       2.83424554        0
H       32.28620756      12.98090697       2.81328302        0
H       31.18433747      13.61680061       1.99266329        0
O       30.49141980      22.98436372       4.24662983        0
H       30.73469386      23.60629306       3.56087954        0
H       31.31870316      22.76269766       4.67406198        0
O       36.49593138      29.79786567       3.87218630        0
H       36.25966723      30.71856597       3.75939424        0
H       35.92588825      29.32755652       3.26383445        0
O        0.23865304       7.61731709      18.82356945        0
H       -0.36699832       8.30162754      18.53872306        0
H        0.53726264       7.20789218      18.01151318        0
O        3.43428496      20.32315562       1.09776472        0
H        3.69656968      19.51236129       0.66181619        0
H        4.03519646      20.40253433       1.83859953        0
O       36.38380573       8.32939146       5.21247504        0
H       35.86275287       7.72887064       5.74549521        0
H       37.29046898       8.13864863       5.45291373        0
O       31.05248669      16.11946687       1.32437219        0
H       31.34497806      15.65558551       2.10890691        0
H       30.09905173      16.03567076       1.33748096        0
O       22.87982138      33.68692114       6.47410268        0
H       23.37326138      33.84922446       7.27809673        0
H       23.45350253      33.12896332       5.94893141        0
O       14.43012250      11.11744230      15.92788094        0
H       13.99263387      10.28549687      16.10871886        0
H       14.13556498      11.35749016      15.04933400        0
O       18.06613679      20.70709448      15.14240216        0
H       18.64149827      20.54120600      15.88917657        0
H       18.63554852      20.62358572      14.37753066        0
O       12.73916222      17.83616305       6.34072522        0
H       13.52664026      18.35048843       6.16301877        0
H       12.96406325      16.94867624       6.06140725        0
O       22.71482622      29.26221555       1.30247020        0
H       23.20797165      28.52298074       0.94670158        0
H       22.10522966      28.86650647       1.92539732        0
O        9.70280145      19.08988286       2.23701947        0
H        9.20154574      19.49470001       1.52913697        0
H       10.40166101      19.71638995       2.42494504        0
O       30.61979217       7.46905776       1.82015482        0
H       31.32891001       6.91792760       1.48903660        0
H       30.00235019       6.85379239       2.21568708        0
O        9.60851845      30.94769071      15.01186534        0
H        9.98435537      31.46783465      14.30163388        0
H        9.73127659      31.48549139      15.79412661        0
O       23.42436148      34.89635590       1.28694327        0
H       23.88689168      35.51862330       1.84826398        0
H       22.60412523      34.72089472       1.74809151        0
O       11.49476802       9.31355442      18.83537115        0
H       11.43912672      10.26295836      18.72689050        0
H       12.18739427       9.18626542      19.48367527        0
O       19.60935493      12.07233061       2.00837601        0
H       19.64916866      12.83249150       1.42802945        0
H       19.32948373      11.35280017       1.44253159        0
O       18.11855417      35.58595906      16.35337148        0
H       18.85102371      35.86697714      16.90177739        0
H       18.32027666      34.67711751      16.13078010        0
O       14.63640297      33.92433405       3.72622361        0
H       14.94155557      33.03222848       3.89133379        0
H       15.33905128      34.48351650       4.05763299        0
O        0.45368303      21.51294330      16.24998257        0
H       -0.26052405      21.25701380      16.83362644        0
H        0.72227072      20.69717743      15.82734970        0
O        5.98125468       2.59665951       3.77138881        0
H        5.60142079       2.60668677       4.64994303        0
H        6.61172909       3.31688553       3.77427753        0
O       17.15204335       6.97549536      18.39380720        0
H       16.89436410       6.05363305      18.39204094        0
H       16.42127767       7.42813902      18.81490942        0
O       28.82115976      17.44801205       0.01804773        0
H       28.97350712      17.63382158       0.94459883        0
H       28.42823826      16.57521436       0.00975776        0
O       13.18482360      27.15199572       2.69729639        0
H       12.93977606      26.89122028       1.80950153        0
H       13.09358637      26.35271483       3.21600409        0
O       34.40991578      12.23043730       0.97925104        0
H       35.15454983      12.80554252       1.15533613        0
H       34.78703969      11.35108423       0.95190904        0
O        3.55005943      29.96181683       3.25461154        0
H        3.53325628      30.53073672       4.02420861        0
H        2.73054249      30.15164918       2.79789772        0
O       22.54470827       9.58109823       0.74545487        0
H       23.41411261       9.35359166       0.41589656        0
H       22.55178796      10.53662780       0.80153482        0
O       24.59923012      24.75932518      12.84313646        0
H       23.79102807      25.26046869      12.95220741        0
H       25.07475893      24.88925759      13.66363739        0
O       14.94598977       5.94795039       0.00879149        0
H       14.35429268       6.67701947       0.19476103        0
H       14.39733001       5.30053222      -0.43398839        0
O       11.81620592      36.27927433      16.56085295        0
H       11.31219612      36.61621271      17.30158130        0
H       12.22399686      37.05477469      16.17544721        0
O       13.44748166      33.79488394       6.14660476        0
H       12.71925743      33.57892687       5.56412398        0
H       14.23113081      33.57603625       5.64239098        0
O       27.62589401      11.55954790       4.26334012        0
H       28.18941204      11.48563167       3.49313517        0
H       27.98426565      12.30001905       4.75273167        0
O        7.91704408      22.17960522      17.31388095        0
H        7.06428600      22.47384208      16.99378696        0
H        7.75472527      21.91278480      18.21869656        0
O       13.15209136      32.57881199       0.92519272        0
H       12.55678604      33.23784030       0.56808615        0
H       14.00326758      32.79181573       0.54262209        0
O        4.61633414      14.30506220      14.44445130        0
H        5.10306753      14.35914814      13.62201762        0
H        5.26068457      14.00455506      15.08534116        0
O        2.00403219      13.41416805      14.36493472        0
H        1.82213381      14.06896590      13.69085416        0
H        1.15294726      13.24124948      14.76740890        0
O       27.89236221       2.23074905      13.01695972        0
H       28.50839785       2.52549731      13.68767232        0
H       27.60905908       3.03464852      12.58139478        0
O        8.82658136      10.72427967       3.78909333        0
H        9.16800907      10.92930944       2.91867862        0
H        8.25559952       9.96853717       3.65101779        0
O        3.55013389      34.71992806      17.02803777        0
H        4.32549665      34.16027854      17.07089601        0
H        3.68848148      35.37448942      17.71261151        0
O       23.35628490      10.13528701      14.37594429        0
H       22.80709080      10.75585004      14.85502592        0
H       23.66973663      10.62802123      13.61752959        0
O        1.02390300      27.84335075       1.89149078        0
H        0.91449691      28.31954758       1.06838767        0
H        0.43827986      27.09030536       1.81275053        0
O       35.49862886       2.13374701       0.41561328        0
H       35.48585707       1.26633564       0.82017013        0
H       36.41252756       2.41234090       0.47397808        0
O       31.14261266      14.34422770      15.52611671        0
H       30.97469673      14.18565375      16.45503564        0
H       32.09313373      14.44042831      15.46706611        0
O       30.28291886      10.31455161      16.06546299        0
H       30.53749500      10.09803652      16.96242678        0
H       30.18946349       9.46665705      15.63121335        0
O       18.00596362      18.10130416      14.19413227        0
H       18.34607755      17.42192771      14.77637105        0
H       17.05523992      18.04621931      14.29068245        0
O        7.21793879      19.77945536       4.80443531        0
H        7.29772577      19.63248527       5.74691378        0
H        7.53750520      20.67208779       4.67284320        0
O       24.45580169      15.59767137      16.68729596        0
H       24.10546490      15.64869863      17.57661716        0
H       24.76452097      16.48409642      16.49974631        0
O        0.02038022       8.61442333      14.49044050        0
H       -0.46885290       7.92074469      14.93281223        0
H        0.13642547       8.29343775      13.59616225        0
O        9.87584176       0.59207091      18.39425341        0
H        9.40888249       1.27510806      17.91296229        0
H       10.28721321       1.05242425      19.12574516        0
O       36.18452890      15.04697271      14.73867273        0
H       36.65158899      14.31018428      15.13266451        0
H       35.35853021      15.09263617      15.22020452        0
O       26.93183021      19.73396043       3.50582443        0
H       27.64214554      20.33176397       3.73888001        0
H       27.33049652      19.11412576       2.89500368        0
O        3.29348884      14.56435550       1.93014573        0
H        3.52034295      14.94918809       2.77671110        0
H        4.08271867      14.67053352       1.39903902        0
O       21.97124097      19.62514025      19.15917008        0
H       22.16910244      20.08528216      18.34347890        0
H       21.03226014      19.75874122      19.28838937        0
O       27.83316527       6.32849590       5.70343578        0
H       27.43756786       6.93955206       6.32500226        0
H       27.88997090       6.82176284       4.88508825        0
O        0.69941924      13.72637854      18.91829470        0
H       -0.03808201      14.01681599      19.45492291        0
H        0.31935170      13.09067089      18.31194802        0
O       23.44852037       2.72500012      19.32330365        0
H       22.71022899       2.25071406      18.94092897        0
H       24.22231250       2.32369366      18.92779042        0
O        4.86680515      26.88597857      14.37701744        0
H        4.64669271      27.81700900      14.40807669        0
H        5.58528209      26.78826069      15.00189659        0
O       32.83566651      19.96507100       1.77330287        0
H       32.88763956      20.71824448       1.18486396        0
H       33.67313199      19.51513642       1.66175790        0
O       14.36365276      19.17841964      15.18054783        0
H       14.68797920      18.54210030      14.54325519        0
H       13.87782589      18.65415748      15.81722143        0
O       24.66138190      15.78878593      12.58672341        0
H       24.80939263      15.23231276      13.35135553        0
H       24.95501011      16.65738275      12.86159409        0
O        6.92664168      26.92183637      18.73143176        0
H        6.02472803      27.17940566      18.54053475        0
H        7.36087496      27.73694044      18.98298425        0
O       35.15083498      35.87281703      18.26502218        0
H       34.84214445      35.74839837      19.16249753        0
H       35.37460358      36.80214134      18.21486456        0
O       33.64698090      16.92640548      15.04639795        0
H       33.03694153      17.13551609      14.33903909        0
H       33.90537201      16.01983011      14.88030471        0
O       25.06473481      22.91276463       2.15141825        0
H       24.32989197      23.17693818       1.59783884        0
H       24.78160665      22.08953351       2.54936400        0
O       30.20915092      33.85985623      17.22280726        0
H       30.13154624      33.11821118      16.62266397        0
H       30.76893948      34.48436155      16.76143788        0
O       32.57128671      24.36320838      14.04812795        0
H       33.38761224      24.02506836      13.68001682        0
H       32.80180116      25.22714054      14.38976540        0
O        0.27712891       3.73671684       4.52144944        0
H        1.02713321       3.69972228       3.92785295        0
H        0.08694043       2.82099706       4.72520777        0
O        5.31133993      18.74436858      14.80705120        0
H        6.00835079      19.25242663      14.39197925        0
H        4.86229002      19.37142918      15.37395599        0
O       12.31998280       5.27383816      16.08718995        0
H       12.68233192       4.59023380      16.65076783        0
H       11.38995172       5.05869154      16.01657863        0
O       13.10980773      12.72024819      17.13773828        0
H       13.68090989      12.83699138      16.37849840        0
H       13.63451113      13.01821036      17.88079732        0
O       30.23195502       5.01430273       3.43596058        0
H       29.49372972       4.85838770       2.84693958        0
H       30.30704951       4.20743028       3.94542059        0
O       17.07767578      28.41111328      19.48397508        0
H       16.17407515      28.12903676      19.62599827        0
H       17.45444147      28.46088918      20.36249759        0
O       24.85772208       1.38240773      13.82266801        0
H       24.43294275       1.24267683      12.97634087        0
H       25.42443071       0.61931603      13.93564693        0
O        2.49440846      24.65438337      19.12966729        0
H        1.96284116      25.44887091      19.08009316        0
H        2.30038407      24.28929890      19.99297471        0
O       22.31270750      21.27903177      15.76082321        0
H       21.76168811      20.80307093      16.38216914        0
H       23.16968731      20.85805644      15.82862596        0
O       22.83227269      15.07224872       0.62937561        0
H       23.54105292      15.51668678       0.16425493        0
H       22.17825389      15.75496954       0.77898684        0
O        8.28629510      33.82042254       2.85401754        0
H        7.75070671      33.04759753       2.67480141        0
H        9.16650385      33.47379870       3.00001858        0
O        1.66411244      10.53454367       5.30501423        0
H        1.08971716      11.09598074       5.82567757        0
H        1.21618035      10.44743662       4.46358625        0
O       27.72053519      21.99298138      14.02229832        0
H       27.64713451      22.34170741      14.91068694        0
H       27.67901256      21.04312838      14.13314499        0
O       19.32951434      27.71811942       4.76423764        0
H       18.92968943      28.32313636       5.38899870        0
H       18.70661016      26.99427468       4.69888460        0
O       20.07040647      36.69663842       6.24856582        0
H       19.87163470      37.54416356       6.64658939        0
H       19.35489875      36.12603990       6.52909720        0
O        9.16285167      12.14469522      15.77011478        0
H        9.65103513      12.64792151      15.11844612        0
H        8.62122764      12.79421705      16.21844127        0
O       31.66578688      28.95284623       0.15102966        0
H       31.03854440      29.28604075      -0.49067130        0
H       32.41971110      29.53779989       0.07580119        0
O       25.77783310      17.37628163       6.84434762        0
H       25.36360347      17.93315467       6.18515260        0
H       26.05048079      17.98220568       7.53336948        0
O       30.33655912      22.02770522      18.77414748        0
H       29.83807590      22.54450544      18.14116735        0
H       29.68484396      21.73464734      19.41102759        0
O        1.97914169      35.36955411       3.53097799        0
H        1.49485441      34.96963651       4.25331004        0
H        2.45906764      36.09251738       3.93499164        0
O        9.96928829      17.45149223      14.25426811        0
H        9.96402673      17.17983706      15.17209577        0
H       10.85948913      17.76918410      14.10311852        0
O       10.82209504      20.08492429      18.42183429        0
H       11.09331943      19.70044718      19.25540883        0
H       10.52085057      19.34052070      17.90092460        0
O        8.93779580       2.23289920      15.48931005        0
H        8.50198983       2.25329811      16.34130118        0
H        9.35083382       3.09278331      15.41037494        0
O       20.15602192      36.60675375       2.52297437        0
H       20.27689397      37.32973482       1.90740947        0
H       19.92444688      37.03113275       3.34911438        0
O       33.89981013       4.33650117      15.78927465        0
H       34.18139191       5.20895095      15.51400219        0
H       33.83246064       4.39562438      16.74227010        0
O        7.41147189       7.71607627      18.60100227        0
H        7.11207378       7.69629604      19.50995846        0
H        8.19156892       7.16144218      18.59316145        0
O       21.30369198      30.59857772       3.43844938        0
H       21.23817555      30.09090347       4.24727958        0
H       20.76468023      31.37350076       3.59717069        0
O       25.72919954      12.64024969      13.51180306        0
H       24.91409924      12.46429507      13.04182082        0
H       26.00990780      11.78386596      13.83435790        0
O        0.64728150      25.33780774      14.85747092        0
H        0.88468930      24.82138752      15.62765241        0
H        0.28864594      24.69898757      14.24141803        0
O       29.30247383      28.53765269      13.11891069        0
H       30.09956853      28.62960353      12.59697493        0
H       29.41655879      27.71088920      13.58760951        0
O        8.41623167      20.11811290      15.06160151        0
H        7.81801094      20.08328076      15.80802667        0
H        8.40047792      21.03402790      14.78396257        0
O       33.54697306      32.81415582      18.99559946        0
H       34.39057331      33.22890534      19.17602479        0
H       33.64771489      31.91699800      19.31370443        0
O       12.23375377       3.45960498      19.32902640        0
H       12.79577526       3.26295103      20.07848681        0
H       12.51841086       4.32531958      19.03621178        0
O       21.22768108       1.61839042       1.84975253        0
H       20.60991063       1.43055097       2.55636973        0
H       21.01847175       2.51247601       1.57943001        0
O        6.56859228       6.98842915       1.39303634        0
H        7.35352484       6.47639450       1.58780088        0
H        6.20075822       7.19958504       2.25114072        0
O        5.19777015      36.95063101       3.50210901        0
H        5.14442284      36.01462902       3.69520530        0
H        5.98380006      37.04008411       2.96323336        0
O       20.37270586      10.45753393      17.87296001        0
H       20.83946553      11.27347983      17.69240657        0
H       20.11298199      10.13371858      17.01045264        0
O       31.74005977      10.89079653       3.90383333        0
H       32.57060116      11.32651859       4.09509003        0
H       31.15522941      11.59791147       3.63144802        0
O        6.50143834      32.78893423       0.69471219        0
H        7.42798803      33.02903172       0.70423573        0
H        6.04443138      33.60401626       0.48730495        0
O       11.77671828      23.56555839       3.09685640        0
H       11.35988126      24.41616848       2.95922927        0
H       11.23380903      23.13644921       3.75817833        0
O       12.91191077      26.68378591      17.84704461        0
H       12.11276248      26.41798394      18.30195467        0
H       13.51268891      26.93959882      18.54694261        0
O       29.19767187      15.17795011      13.69453974        0
H       29.95474216      14.73290459      13.31373677        0
H       29.57454021      15.86691181      14.24183660        0
O       16.01213260      21.69565503       5.46846374        0
H       15.93766642      21.10795070       4.71660587        0
H       15.37942662      21.35661020       6.10168059        0
O       30.52412153      37.57347596       0.88678185        0
H       31.34932369      37.20041159       1.19677575        0
H       30.31434378      37.07104155       0.09951772        0
O        4.86581949       9.22534156       3.24243090        0
H        5.56562206       9.62891357       2.72897416        0
H        4.10090415       9.77784223       3.08156020        0
O       18.03092019       5.47170539       5.20870750        0
H       18.38367290       6.34770804       5.05244901        0
H       18.78938907       4.89182573       5.14017742        0
O        5.27610927       4.31991163      17.34882935        0
H        6.18480354       4.03878184      17.24171913        0
H        5.23281690       4.65602309      18.24403140        0
O       14.31874818       7.82434074      14.17076046        0
H       14.04246602       7.26786252      13.44259016        0
H       15.22194693       8.06246026      13.96156451        0
O        0.33509452      36.20587846       1.66149625        0
H        0.43098444      36.23570865       0.70957865        0
H        1.21112597      35.99492473       1.98445021        0
O       30.28773808      13.12438622      18.52599821        0
H       29.44551258      13.57860175      18.50199179        0
H       30.09523077      12.24455718      18.20184758        0
O       13.30359130      29.59938096      16.64277758        0
H       13.72817987      29.85601923      17.46136978        0
H       13.92304858      29.85707483      15.96006360        0
O        7.66768872      28.49344971       1.15699995        0
H        7.28883740      29.37051970       1.09824845        0
H        8.24809918      28.43142874       0.39837690        0
O       34.30247040      20.26945951       4.99460807        0
H       34.46207328      21.16922591       4.70968846        0
H       35.17534644      19.88526089       5.07652688        0
O       33.07472720      37.21225837       1.71122070        0
H       32.82815623      37.60399067       2.54906341        0
H       33.63048107      37.86994041       1.29310131        0
O        3.26802513      37.04949062      17.90818393        0
H        2.60091143      37.43091859      17.33747924        0
H        3.02666428      37.34072820      18.78747765        0
O       34.67411936       4.65031438       2.26788972        0
H       33.98609091       4.99587425       1.69917444        0
H       34.97700379       3.85816126       1.82405835        0
O       15.93167247      35.82667719       4.94798649        0
H       16.61465456      35.38028458       4.44748580        0
H       15.64616946      36.54188115       4.37947690        0
O        4.44104108       4.86581245       1.61635958        0
H        4.23050175       4.84919455       2.54997025        0
H        3.59003225       4.85732090       1.17824579        0
O       31.93729944      24.87766245      17.71279259        0
H       32.85471631      25.12076728      17.83720389        0
H       31.92142969      23.92876429      17.83758146        0
O       34.21177395      21.80615061       0.71162551        0
H       33.96849561      22.73190035       0.70571777        0
H       35.11386591      21.79303067       0.39179772        0
O       18.88899296      13.86140412      19.19659065        0
H       19.51659846      13.60444109      19.87210022        0
H       19.40572703      14.36592348      18.56835665        0
O        2.73276854      10.78032206       1.94567864        0
H        3.67995469      10.67023996       1.86229894        0
H        2.58635839      11.71542910       1.80295257        0
O        8.62864581      18.64832871       0.08712334        0
H        8.20331523      17.85011784       0.40046840        0
H        8.65027504      18.55088272      -0.86485791        0
O       15.82002830      16.06166144      18.91836918        0
H       15.39680456      15.36769370      19.42386129        0
H       15.37317552      16.04867536      18.07197342        0
O       31.22327369      18.90940047       4.66966412        0
H       30.67711655      18.12345419       4.68491738        0
H       32.04155888      18.64116163       5.08762238        0
O       37.39249610      16.08163674       4.03230907        0
H       36.55390849      16.50359834       4.21926114        0
H       37.29256547      15.73071067       3.14738162        0
O        7.51460311       8.57639659       5.61753585        0
H        7.67405445       7.71887021       5.22325724        0
H        7.10363365       9.08819631       4.92083147        0
O       32.03191424      32.13492564       3.36409375        0
H       32.66743404      32.30296474       4.05987338        0
H       32.56511288      31.91834805       2.59922435        0
O       15.63229543      21.63474076       2.34840272        0
H       15.49917707      21.75000190       1.40753811        0
H       14.98733129      22.21366282       2.75473061        0
O       14.31238916       0.27093843       4.42166260        0
H       13.61549744      -0.36982109       4.28023769        0
H       14.25448392       0.48700368       5.35235838        0
O        4.47114791      23.67955373       5.97825149        0
H        4.65711951      24.45999281       6.50032547        0
H        5.32250699      23.41590992       5.62909323        0
O       13.93614857       0.40595463      14.22110030        0
H       14.24781594       0.43843003      15.12555629        0
H       14.16783258       1.26018013      13.85661002        0
O        8.72053268      13.13430968       5.47104445        0
H        8.53049190      13.80088978       4.81090256        0
H        8.03293360      12.47860884       5.35487319        0
O        1.01442671       1.91454445       2.90901823        0
H        1.16179610       2.46060419       2.13679232        0
H        0.86683805       1.03655369       2.55747641        0
O       19.98045788      28.80405762      15.25152767        0
H       19.09888575      29.16885109      15.32891082        0
H       20.52131819      29.54140893      14.96865842        0
O       15.03392451      26.59941949       5.25187655        0
H       15.36802348      27.44974241       5.53746481        0
H       15.81665436      26.06100774       5.13492095        0
O       17.10708680       9.92794560       3.25463421        0
H       16.93304951       9.17874108       2.68486631        0
H       16.24182743      10.20982197       3.55145700        0
O       26.43872502      14.24074536       0.17431030        0
H       26.03442630      13.79768283       0.92027945        0
H       25.70136445      14.50904542      -0.37391074        0
O       24.81362053      33.23088460      18.83307649        0
H       24.79023525      33.95266408      18.20480956        0
H       25.14818239      33.62477497      19.63877530        0
O       17.39642554       5.69371539      16.11885247        0
H       17.76146665       5.90867135      16.97720599        0
H       16.74591102       5.01474561      16.29791317        0
O        4.25628038       9.60615051       6.36249474        0
H        4.49396097      10.53225832       6.31706253        0
H        3.36666948       9.60375180       6.71579141        0
O        4.52765461      22.01102098      16.92470006        0
H        4.37163044      21.31299475      17.56081929        0
H        5.03576062      21.59299200      16.22949370        0
O       29.74980335      35.19326758       4.53952109        0
H       30.34021291      35.58421123       5.18357968        0
H       28.88113815      35.26614677       4.93492118        0
O       15.85625712      19.11919951       1.93727788        0
H       15.26507533      19.82648438       2.19512285        0
H       15.33469786      18.32262091       2.03561563        0
O       36.69831907      12.13611212       2.43656684        0
H       37.10468227      11.35823413       2.05445872        0
H       36.90127196      12.07880461       3.37024656        0
O       37.67583201      30.61185977      15.54380797        0
H       38.41415865      30.03314898      15.35354646        0
H       37.61438423      30.61636387      16.49902299        0
O        9.36976250      34.94455636      19.00317360        0
H        9.74132475      35.81681021      19.13487987        0
H        8.84313858      34.78719811      19.78684283        0
O        0.68124031      17.99067500      15.42802244        0
H        0.13684121      17.42189887      15.97240758        0
H        1.28510438      17.39370005      14.98620693        0
O        7.68043508      13.66076791      17.66511904        0
H        8.25343434      14.33052242      17.29184626        0
H        6.97780100      13.56093129      17.02280304        0
O        3.70406548      33.52928511       2.44814710        0
H        4.06934495      34.09538144       3.12810129        0
H        4.33384853      33.58073093       1.72914886        0
O       23.87014255      23.65553499       4.99502064        0
H       24.59630215      23.84947691       5.58773526        0
H       23.09151017      23.68781637       5.55082759        0
O       18.85427349      16.57333057       5.62466827        0
H       18.44385518      15.88367201       5.10297898        0
H       18.44465440      16.49823158       6.48652916        0
O       31.85846068      26.99776643       2.70092289        0
H       31.40220815      26.49954156       2.02280973        0
H       31.24473938      27.69126311       2.94308064        0
O       15.00202249       7.62451751       1.77754758        0
H       14.23638356       7.93641946       1.29510997        0
H       14.67861234       6.88097415       2.28625280        0
O       23.23568964      30.94813293      18.90045617        0
H       23.12266970      30.13608884      19.39446299        0
H       22.65713796      30.85138229      18.14405079        0
O       34.97666960       5.11352505       5.72843606        0
H       34.57096175       5.44572320       6.52923402        0
H       34.69349157       5.72181217       5.04577302        0
O       32.84077604       4.04495407       5.09004423        0
H       33.01886577       3.56938484       5.90143181        0
H       33.28952449       3.53957133       4.41222054        0
O       24.38489451      19.25291591      13.78278180        0
H       24.63607799      18.91833706      12.92185457        0
H       24.14836220      18.47243289      14.28391110        0
O       34.45819098      23.94656078      18.49333476        0
H       35.11939638      24.56590857      18.18438885        0
H       34.03723292      23.62697909      17.69527856        0
O       31.67353707       8.49596944      18.54907171        0
H       30.72678283       8.35531368      18.55927983        0
H       32.04739963       7.61596905      18.59443614        0
O       23.72777090      35.16781614      13.37292360        0
H       23.96549758      36.01155394      13.75740298        0
H       22.77097005      35.17701614      13.34685964        0
O       34.44689106       5.93980214      19.34202253        0
H       33.54344292       5.79863983      19.62501809        0
H       34.97083401       5.39947624      19.93343064        0
O        6.17419839      14.27945815       2.48546439        0
H        6.40127269      14.94271737       1.83373108        0
H        5.26014692      14.06400660       2.30020139        0
O       12.31095079      21.01654993       2.66725768        0
H       12.19278902      20.74682491       3.57803650        0
H       12.13659242      20.22503259       2.15801188        0
O       27.87911690       7.87853209       2.90188211        0
H       28.40709186       7.14643934       2.58326872        0
H       26.97597179       7.62226711       2.71509612        0
O        3.30574608       2.94478083      16.36067261        0
H        2.91652738       3.81463661      16.45062575        0
H        3.78008163       2.80813050      17.18077279        0
O       37.02594560       0.16360104       5.36559648        0
H       36.79077117       0.89309113       5.93898032        0
H       37.02569437      -0.60247097       5.93950017        0
O        8.67001994      26.68643232      14.01847822        0
H        8.16130998      25.91346575      13.77359312        0
H        8.49413875      26.80360274      14.95205668        0
O       34.13675798       1.57205235       5.56683411        0
H       34.46108804       2.45347236       5.75160587        0
H       33.35263563       1.48628991       6.10907833        0
O       27.70181398      10.42298664      18.94023887        0
H       27.47823464       9.54047474      18.64457541        0
H       28.50959491      10.63529434      18.47264156        0
O        2.57974315       6.15527798      15.61977533        0
H        3.45155908       6.29649006      15.25068458        0
H        2.24724391       7.03586461      15.79368130        0
O       26.91168065      32.79671353      14.36894655        0
H       27.32142991      33.45500230      14.93018918        0
H       26.08364915      33.19361538      14.09864191        0
O       22.90785478      21.90890329       3.00725032        0
H       23.48061533      22.55355354       3.42270580        0
H       22.02205644      22.20057661       3.22293484        0
O       31.29415821       5.28714262       6.44640137        0
H       30.62095160       5.51267326       7.08839875        0
H       31.84851461       4.64819041       6.89435327        0
O       19.20748941       3.17055353       1.83898129        0
H       19.94949595       3.61738166       1.43154695        0
H       19.60603390       2.56118737       2.46032420        0
O       35.94897806       8.73494862       2.60815867        0
H       35.18728163       9.21798526       2.28764971        0
H       36.45910021       8.54186384       1.82156760        0
O        5.76080081       9.24635083      17.15419675        0
H        5.82353851       8.56574457      16.48406919        0
H        5.81897681      10.06849183      16.66744058        0
O       12.78089934      12.83657713       5.84281009        0
H       12.37550523      13.52788000       5.31937165        0
H       12.98832762      12.14778180       5.21133060        0
O       36.50998029       4.56041629      14.26434057        0
H       36.06171692       4.93305694      15.02357093        0
H       36.17457550       5.05880941      13.51912935        0
O        4.90939859      11.86933387      15.40412053        0
H        4.00815862      11.68800437      15.67080005        0
H        5.07182255      11.26439759      14.68030950        0
O        9.16601629       0.44468932      13.18606572        0
H        8.32313845       0.13801762      12.85178851        0
H        9.63221448       0.75748164      12.41079025        0
O       32.06266245      34.57431577       1.50793924        0
H       32.16912751      35.05198324       0.68530273        0
H       31.69774596      35.21889160       2.11423108        0
O       31.51792711       3.69846859      13.74948567        0
H       32.28050281       3.64697979      14.32573132        0
H       31.26147601       2.78705913      13.60878220        0
O       36.33141198      17.87578317       0.16782707        0
H       35.49444460      18.33685549       0.11188279        0
H       36.71821511      18.17935869       0.98908043        0
O        8.56693016      26.75218757       4.08452694        0
H        8.90412207      25.93636319       4.45461346        0
H        9.09725123      26.89753039       3.30103038        0
O       15.92325242      30.26093713       2.38180236        0
H       15.62805528      30.26795269       3.29231940        0
H       15.95235620      29.33366963       2.14609111        0
O       10.24107390      25.47418627      15.80974377        0
H       11.04130759      25.18663268      16.24925579        0
H       10.54331502      25.85127505      14.98349550        0
O       25.84470260      31.50185028       2.67567040        0
H       24.98426323      31.23928902       2.34865738        0
H       26.35721392      30.69342293       2.67870561        0
O       16.68033525      12.91199125      19.37569213        0
H       16.12514859      12.78641597      20.14525725        0
H       16.21275107      12.46906444      18.66758712        0
O       10.90606116      28.52904929      18.88434393        0
H       10.58871138      28.74109062      18.00652878        0
H       11.53272061      27.81848811      18.74784274        0
O        9.75086865      21.88568019       1.69320842        0
H       10.67753400      21.65293079       1.63532149        0
H        9.63888239      22.20400544       2.58895389        0
O       12.43704563       6.53230019       0.42573523        0
H       12.94665219       5.90886070      -0.09181303        0
H       13.08395230       6.97063098       0.97855501        0
O       28.47697960      36.22161840      13.79803664        0
H       29.02769707      35.57193389      13.36117036        0
H       27.58527552      35.88977447      13.69327369        0
O        9.86034858      25.30646466       0.78836087        0
H        9.30597845      25.96257555       1.21076365        0
H        9.27304285      24.57022285       0.61732924        0
O       12.78918415      20.45388251      16.98361854        0
H       12.09926016      19.95661542      17.42289314        0
H       13.60340467      20.04348861      17.27491500        0
O       12.52039426       9.24283521      16.50030918        0
H       13.32009819       8.90312785      16.09868203        0
H       12.82551207       9.90849379      17.11677785        0
O        5.66736542      37.14327814      13.78448153        0
H        4.75110454      37.38731000      13.91542538        0
H        5.84048307      36.48882488      14.46120381        0
O        7.47036039      20.45971443       1.74826884        0
H        7.57396624      20.31770415       2.68918900        0
H        6.70384817      19.93832928       1.50983984        0
O       23.71014986       7.23605069       3.59708854        0
H       24.03870070       7.63025062       4.40510624        0
H       24.43076301       7.32977108       2.97405964        0
O       16.78390503      33.90795889       0.74756036        0
H       16.20952300      34.67272480       0.70947837        0
H       17.52486733      34.19077609       1.28349052        0
O       30.57356174      37.63472999      15.00115490        0
H       31.38317977      37.35999005      15.43158312        0
H       29.90298456      37.05133632      15.35641523        0
O       26.29491208      17.62041526       2.03382319        0
H       25.35367285      17.61740947       1.85977863        0
H       26.67560590      17.13292620       1.30330387        0
O       21.69606590       6.48292408      14.86772210        0
H       22.64713441       6.58828264      14.84322515        0
H       21.35561839       7.28252560      14.46651800        0
O       29.84300988       3.43841882      19.54542655        0
H       29.98596712       2.63603976      19.04344755        0
H       29.28731806       3.16832807      20.27651439        0
O       35.30675458      28.89589769      19.68626328        0
H       34.77111965      28.18441857      19.33537225        0
H       34.90180712      29.69264563      19.34356498        0
O       35.25947321      23.44177475      15.08021870        0
H       34.99710189      24.09143904      14.42804584        0
H       35.37352036      22.63307884      14.58098327        0
O       21.92735271      18.39206091       1.79433854        0
H       22.09555552      19.23782571       1.37886105        0
H       22.78834020      17.97790767       1.85272928        0
O       28.47488259      20.29318049       6.33921056        0
H       29.29666753      20.26127689       5.84943150        0
H       28.37022763      21.21558647       6.57254806        0
O       30.03598472      24.86661624       0.32644551        0
H       29.21249071      25.34508123       0.23073387        0
H       30.59234900      25.20359999      -0.37578848        0
O        0.59198286      21.45043941       4.33547170        0
H        0.40667006      20.52658762       4.16698166        0
H       -0.12807424      21.74148273       4.89497452        0
O       21.39195305       6.79316918      12.45138956        0
H       22.13731137       6.97908529      13.02244824        0
H       21.39213176       7.50894620      11.81586217        0
O       19.31583895      19.68369838       4.27218919        0
H       19.84050552      19.32479191       4.98783085        0
H       19.91177751      19.70176159       3.52334822        0
O       35.09677288      25.03835990       2.03297464        0
H       35.48510557      25.88985971       2.23391650        0
H       34.90798258      25.07595201       1.09533031        0
O       28.19999892      33.33045380       4.74212897        0
H       27.53187660      33.88507670       4.33934138        0
H       27.96732295      33.31012073       5.67039634        0
O       29.97338182       0.15473880       5.66542755        0
H       29.77112757       0.69319576       4.90032026        0
H       29.76456920       0.71345327       6.41407116        0
O       32.84984888       9.85532179      14.11376402        0
H       33.39885582       9.53415872      13.39844765        0
H       33.43549743      10.39970470      14.63997201        0
O       16.85076640      25.74333427       3.72305040        0
H       16.44769765      26.32366118       3.07730424        0
H       17.75225577      25.63605067       3.41967113        0
O       10.75205690      16.18730934      16.53298414        0
H       10.94647671      15.40465807      17.04862913        0
H        9.89598717      16.47633804      16.84895704        0
O       18.76853103      22.57347082       4.48994503        0
H       17.94781269      22.50320455       4.00238385        0
H       18.78911114      21.78993207       5.03937686        0
O       23.66973494      32.48874364       3.42061578        0
H       23.09499308      33.25130009       3.48703338        0
H       24.23089479      32.67599031       2.66810654        0
O       11.56247217      22.43658998      17.87623864        0
H       10.95504403      23.17531563      17.83690289        0
H       11.38089524      22.02121399      18.71928339        0
O       11.11199319      12.97731384       0.32184032        0
H       10.49008049      13.69362458       0.44972833        0
H       11.46539426      12.80754686       1.19506349        0
O        3.84333881       2.77759147       5.97897310        0
H        3.85797515       3.65022403       5.58587002        0
H        4.23863426       2.89674338       6.84255644        0
O        1.79350147       9.84874339      18.91346275        0
H        1.15062239       9.87628886      18.20481645        0
H        2.08477054      10.75557098      19.00863570        0
O       37.61038386       5.21532090      19.50337264        0
H       36.78052176       4.84150775      19.20702072        0
H       37.35677163       5.95170631      20.05983396        0
O       22.13552096       9.61343114       6.58476274        0
H       23.08710817       9.54405369       6.66157670        0
H       21.98210126       9.79323064       5.65720337        0
O        5.34140442      25.72806869       1.14677070        0
H        4.80241372      25.19551663       1.73167168        0
H        6.23127534      25.63120514       1.48585630        0
O       13.92090848      32.91731754      14.51263170        0
H       14.25106277      33.58420424      13.91055852        0
H       13.07250511      32.66432378      14.14871178        0
O       23.32708931      10.48311042      18.32740671        0
H       23.00343520       9.64090469      18.00776728        0
H       22.63926148      11.10763938      18.09699772        0
O       12.27345351      29.26467780       3.73069827        0
H       11.97237460      30.16696128       3.83778632        0
H       12.33816568      29.14411666       2.78332865        0
O       24.00690572       5.22336042      16.40086301        0
H       24.53305734       4.42435253      16.36951505        0
H       23.35209013       5.10666817      15.71250896        0
O        9.50348600       7.46146476       2.93430958        0
H        9.48122142       8.35919962       2.60293630        0
H        8.98679548       7.49000650       3.73957234        0
O       36.69614419      12.58601617      13.87473090        0
H       35.90363142      13.09325752      13.69905626        0
H       36.76637572      11.98578642      13.13242124        0
O       22.76142816      37.30681878      19.10057010        0
H       22.52703675      37.81509941      18.32407585        0
H       23.52328878      36.79398962      18.83074331        0
O       19.70696110       1.35159595      14.53620709        0
H       20.12175580       2.06684587      14.05392632        0
H       19.57481812       0.66574129      13.88170464        0
O       11.88058783       1.40134332       2.85502040        0
H       11.61526365       0.49213406       2.71655225        0
H       11.05966017       1.89359281       2.85480322        0
O       16.34462452      14.11988829       2.72117761        0
H       16.40085345      13.16879998       2.81337944        0
H       16.10197625      14.25831767       1.80564991        0
O       36.65660739      14.48448626       1.32247549        0
H       36.94583248      13.63026956       1.00170374        0
H       35.72895745      14.52652317       1.09024644        0
O        2.08672305      32.53469236      14.18560430        0
H        1.37081144      32.13156022      13.69449649        0
H        1.71156353      32.72269305      15.04591989        0
O       10.48706658       2.82658884       1.20791997        0
H        9.90114559       2.51504135       0.51808912        0
H       10.92255034       3.58899663       0.82671122        0
O        3.06594225      13.83515272      17.23137555        0
H        3.84448960      13.48278320      16.80017770        0
H        2.90744854      13.24011327      17.96420542        0
O        0.33804978      16.41542973      18.70133113        0
H        0.81420202      17.00052828      18.11211931        0
H       -0.07646004      16.99957828      19.33629878        0
O       20.85820751      35.46559448      16.09114384        0
H       20.30838026      36.22171822      16.29656713        0
H       20.83008222      35.40067590      15.13656206        0
O       23.18382707      32.86450010      14.07620320        0
H       22.48391246      32.51443411      14.62738845        0
H       23.94506823      32.32166627      14.28132551        0
O        2.48186880      25.12514240       2.03466998        0
H        2.44227752      25.53973251       2.89651649        0
H        2.26455043      24.20762931       2.19951626        0
O       10.70774014      33.89694681       2.82920881        0
H       11.23779628      34.03140744       2.04359270        0
H       11.01289220      34.56597367       3.44200333        0
O        6.57864903      28.41216888       6.37417842        0
H        6.57927032      27.87443404       5.58229920        0
H        5.67987171      28.73370284       6.44522125        0
O       22.88537287       1.54391979      15.50080957        0
H       23.16109323       2.41874092      15.22713437        0
H       21.92971918       1.59103115      15.52798262        0
O       32.06478449      13.03748792       0.54614853        0
H       32.68808037      13.02998388       1.27256286        0
H       31.76097375      13.94401860       0.49996397        0
O       10.30118864      21.60661652       4.43485524        0
H       10.74560326      21.34440316       3.62864706        0
H       10.56852457      20.95203146       5.08005423        0
O        2.59693103      28.95694498       5.88641756        0
H        2.57893449      29.82699131       5.48776062        0
H        3.51366674      28.68698876       5.83209335        0
O        1.22112053       4.97922237      13.57074254        0
H        0.31750300       4.67254925      13.49551753        0
H        1.46637241       4.78380327      14.47511787        0
O       20.53178195      34.67917704       0.34321849        0
H       20.52342809      34.32096368       1.23082496        0
H       19.96207162      34.09469726      -0.15682687        0
O        0.74777875      18.60450856       5.69567638        0
H        1.43763295      18.04538410       6.05304573        0
H        0.00424641      18.47416120       6.28423484        0
O       23.23481429      12.51643093       3.49234975        0
H       23.12906693      13.44086862       3.71699236        0
H       23.80650866      12.16719541       4.17603969        0
O       26.95173264      15.57852521       3.44788865        0
H       27.13412184      16.39206390       2.97765380        0
H       27.39660821      14.90162331       2.93786769        0
O       37.35928017      23.29676283      19.28848834        0
H       38.21218239      22.86644486      19.34862233        0
H       36.73057697      22.57698287      19.23481392        0
O       27.37061040      25.07922910      14.11864164        0
H       27.54760856      24.20393802      14.46327044        0
H       28.19157335      25.55592640      14.24116250        0
O       28.00535531      12.29499627       1.29135005        0
H       27.72320587      12.68455029       0.46378060        0
H       28.03740370      11.35465888       1.11536616        0
O       28.14380855      12.52864494      13.94028934        0
H       28.27010664      12.91122384      13.07200711        0
H       28.18095977      11.58345210      13.79378979        0
O       15.28755939      26.02751003       1.68191868        0
H       16.20898361      26.25849454       1.56420968        0
H       14.82342625      26.86365710       1.64104887        0
O       24.45581638      22.00281178      18.34235989        0
H       23.56082520      21.68545907      18.46281682        0
H       24.98277353      21.46481911      18.93321680        0
O       10.83236884      35.83229352      14.09503078        0
H       11.70951609      35.91129382      14.47000210        0
H       10.56620668      36.73395854      13.91505927        0
O        0.88216515       3.50323390      18.02072101        0
H        1.82542507       3.65202763      18.08669816        0
H        0.79997577       2.72452399      17.47018707        0
O        5.88769579       4.86134539      13.60008098        0
H        5.15437352       4.25958711      13.47218544        0
H        6.34619403       4.52106280      14.36833807        0
O        5.33783528      16.14488228      19.65789725        0
H        4.68181536      15.90265065      19.00429680        0
H        6.11966658      15.65295065      19.40694920        0
O       37.67672984      32.43357625      18.17059051        0
H       38.62253150      32.55910976      18.09356849        0
H       37.51127973      32.42865355      19.11337037        0
O       23.70954001       0.18703406       5.88106530        0
H       23.97777441      -0.03279387       6.77322999        0
H       22.97699996       0.79289148       5.99310859        0
O       15.41934126      30.68755662       5.03481699        0
H       14.61507148      30.16974851       5.07026710        0
H       15.13042779      31.58945479       5.17388723        0
O       12.13686833       9.90953803       4.78554325        0
H       12.79280638      10.60660003       4.79458146        0
H       11.54450401      10.14665824       4.07202356        0
O        3.95997018       2.09056569       0.39894342        0
H        4.02249808       2.88181961       0.93395682        0
H        3.96438301       1.37218343       1.03150907        0
O       15.06431388      29.43371395      14.04792467        0
H       15.39145195      29.98242992      14.76075235        0
H       15.81175647      29.33576897      13.45803637        0
O       18.17411060      10.93379607      16.11802634        0
H       18.59555006      10.85886536      15.26186864        0
H       18.40437328      11.81145284      16.42286981        0
O       26.78000827       3.91992383       2.36628741        0
H       26.28274301       3.36714231       2.96910720        0
H       27.69012928       3.64959864       2.48809005        0
O        9.03521703      12.86957625       2.00405436        0
H        9.69400716      12.60185488       2.64479820        0
H        8.92340056      13.80851060       2.15281993        0
O       15.52371305      14.31009702      16.09807396        0
H       16.47285067      14.37042736      15.98976945        0
H       15.39018689      13.50705895      16.60159405        0
O       20.31235706      11.94579464       4.82100347        0
H       19.98253497      12.73917170       5.24290638        0
H       19.52552552      11.45262057       4.58882400        0
O       29.88906099       7.87504307       6.02604661        0
H       30.32072428       8.63550574       5.63669436        0
H       29.02426674       8.19523112       6.28264428        0
O       12.55023967      12.29184396       3.38378629        0
H       13.01198572      13.11846234       3.24334242        0
H       12.26957339      12.02214858       2.50930206        0
O        8.27806617      29.96359095      18.05786488        0
H        9.17168529      29.86756620      18.38719141        0
H        8.38609829      30.23484186      17.14628173        0
O       18.27396366       7.06087785      13.64270680        0
H       17.91129677       6.17557037      13.61212527        0
H       19.02881893       6.99093901      14.22711582        0
O       15.75780938      31.81434802      18.41227091        0
H       14.99837520      31.35580285      18.05278810        0
H       15.47615184      32.72644258      18.48287109        0
O       19.40734155      34.47164329       3.34495806        0
H       20.24710765      34.01278951       3.36682025        0
H       19.37947623      34.96046372       4.16746031        0
O       23.64251892       7.85851183      15.34863944        0
H       24.29827721       8.53703034      15.18793621        0
H       23.18876639       8.14612277      16.14086443        0
O       33.72744105      12.48270738      13.57373850        0
H       34.65044813      12.23190987      13.61102635        0
H       33.71778855      13.40249642      13.83855314        0
O       34.23365246      36.42112384       5.59930758        0
H       34.86322083      35.70841185       5.49014201        0
H       33.50474035      36.02625966       6.07784834        0
O       21.62258034      17.25501794      13.42853393        0
H       21.84314213      18.14391831      13.15025266        0
H       21.13638912      17.37271511      14.24462052        0
O       24.79683512       5.98397907       1.15520508        0
H       24.17771913       6.70810179       1.24779835        0
H       24.36908888       5.37844991       0.54973053        0
O       10.78325194      16.28078739       0.09822246        0
H       11.11857669      16.54190276       0.95589834        0
H       11.33195415      16.75310721      -0.52793384        0
O       22.31949709      16.04408267       3.12054456        0
H       22.76423843      15.21003788       2.96952712        0
H       21.42567943      15.89907993       2.81022852        0
O       25.08658419      35.26435832       3.41439271        0
H       24.86596542      36.10470764       3.01268111        0
H       25.96039403      35.06092376       3.08077230        0
O       18.09518317      22.89394188      16.58648294        0
H       18.85795739      22.88697890      17.16472064        0
H       18.33014496      22.30171430      15.87213619        0
O        1.90228142       7.90068280       3.20384702        0
H        1.11628556       7.65353338       2.71665146        0
H        1.84993537       7.39628355       4.01568020        0
O       13.09375317      21.94054997       5.64884717        0
H       12.47293599      21.85439902       4.92538613        0
H       13.87984458      21.48609302       5.34592636        0
O       24.57317459       3.83077682      13.95510472        0
H       25.34095542       3.47436334      14.40199829        0
H       24.66079134       4.77950005      14.04718824        0
O       32.03845542      31.21765748      17.48565209        0
H       32.49814246      31.68200787      16.78615343        0
H       32.24607821      31.71194825      18.27862198        0
O        5.98555099       6.84825996      16.46545263        0
H        6.24356853       6.22500821      17.14458151        0
H        5.08587205       7.08726729      16.68835425        0
O       18.47444369      21.83403458       1.06832052        0
H       19.06532377      21.35451238       0.48767343        0
H       17.80779880      22.19743654       0.48543507        0
O        9.30122427      10.80536733      13.55477856        0
H        9.72941059       9.94977601      13.58396428        0
H        8.81631463      10.85927060      14.37830083        0
O       28.38063604       8.94410624      14.43860043        0
H       27.98596420       8.25803816      14.97690942        0
H       28.28515517       8.62872226      13.53990794        0
O       30.45540351      29.59485574       4.69161513        0
H       30.68659624      30.41729391       4.25990086        0
H       30.17661053      29.85480926       5.56964159        0
O       10.16973106      14.31091228      14.16952946        0
H        9.97803919      15.01043264      13.54490371        0
H        9.80940889      14.62447496      14.99903427        0
O       13.66447950      16.56080506      14.02805413        0
H       12.83608018      16.08169775      14.04909230        0
H       14.15817641      16.21938625      14.77366019        0
O       28.22715678      28.53107366       0.53025093        0
H       29.09027830      28.77758590       0.19785837        0
H       28.37296594      28.33722569       1.45620692        0
O       35.47992083      12.72651798      17.87874061        0
H       36.22189431      12.69053461      18.48240641        0
H       35.38771009      11.82935779      17.55806536        0
O       25.21396115       3.15610193       5.46797650        0
H       26.11682560       3.38236492       5.69129844        0
H       25.20661313       3.11397780       4.51173208        0
O       32.14126198      16.67499520      18.74415712        0
H       33.03021622      16.33880887      18.85804719        0
H       31.57521276      15.96038873      19.03597506        0
O       14.66563686       5.80799893       5.63561235        0
H       14.95147950       5.48456199       4.78126208        0
H       14.82693254       5.07890324       6.23447378        0
O        6.56287631      13.19578964       0.26387028        0
H        6.71872253      12.51377704      -0.38943104        0
H        5.67663906      13.50685864       0.07933989        0
O        2.12650111      15.04077399       4.76240745        0
H        1.37829098      15.62789281       4.65421805        0
H        1.81215307      14.19168458       4.45182039        0
O       34.26496398      17.03618717      17.46001314        0
H       34.81684126      16.26396865      17.33615084        0
H       34.88329595      17.75217753      17.60580491        0
O        6.58164219      17.14187804      16.63564362        0
H        7.11745328      17.64894448      16.02570761        0
H        6.01643738      17.79061206      17.05507124        0
O       37.22269184      33.10086658      14.07095731        0
H       37.68963264      32.65448152      13.36460152        0
H       37.82750294      33.78171168      14.36572046        0
O        3.23465250       3.63150272      13.90741587        0
H        2.40772977       3.22488013      13.64840097        0
H        3.56854086       4.02953425      13.10347476        0
O        2.27323097      37.25083466      15.56048145        0
H        1.48941218      37.64891509      15.18181021        0
H        2.31005031      36.37677014      15.17203918        0
O       24.46151945      20.88053607       5.84837106        0
H       25.36257921      21.03189875       6.13369982        0
H       24.42095892      21.25951397       4.97032640        0
O       37.01171956       5.24495422      16.82101284        0
H       37.01539539       4.79859990      17.66776318        0
H       37.44249802       4.63231933      16.22490861        0
O       26.23044698      25.47341442      19.01032624        0
H       25.94332365      24.58870278      19.23632920        0
H       26.80880047      25.35297199      18.25717771        0
O        7.60295731      33.61180227      16.22947550        0
H        7.87294811      34.51411188      16.05867101        0
H        6.88351103      33.69106106      16.85585154        0
O        4.11437640      28.31778431      18.90444049        0
H        3.37867055      28.89933892      19.09617720        0
H        4.29672879      28.45972102      17.97555222        0
O       27.04576289      22.68353600      17.28954082        0
H       27.18837027      22.63087919      18.23459227        0
H       27.36335407      21.84606710      16.95188192        0
O       11.96194457       1.99979761      14.53994273        0
H       12.70075320       2.54075020      14.81880460        0
H       12.02236298       1.98502565      13.58476565        0
O       21.92383159      26.88955768      19.18538491        0
H       22.70497168      27.21299473      19.63420612        0
H       21.22971489      27.49536742      19.44505470        0
O        1.96380048      32.08586138       1.26325748        0
H        1.23327758      32.00363497       0.65022653        0
H        2.27648267      32.98279590       1.14506206        0
O       34.93994367      27.94256306      13.98953530        0
H       34.38005828      27.16645615      14.00998664        0
H       34.36769825      28.65863207      14.26523836        0
O        9.86877934      31.21973807       2.30105224        0
H       10.25045489      31.53243902       1.48082439        0
H       10.48515318      31.50358128       2.97614346        0
O       26.01590646      27.80463671       4.50114575        0
H       26.56589759      28.14218220       3.79417711        0
H       25.86825094      26.88682608       4.27299375        0
O        6.74049066       0.47644085      18.37418067        0
H        7.60176416       0.69386071      18.73078745        0
H        6.27005438       1.30990428      18.35804818        0
O       10.44390774      17.96445691       4.34579182        0
H       11.40080666      17.97586614       4.32466985        0
H       10.21318897      17.03865589       4.26902484        0
O        9.53798741      22.06309005       6.78961507        0
H        9.84701925      22.13653112       5.88665462        0
H       10.27744412      22.35801623       7.32107923        0
O       26.47974145      37.55900547      16.66871074        0
H       26.58706007      36.74687567      17.16384683        0
H       26.30264269      38.22405480      17.33397555        0
O       19.25558786       7.73954737       0.91725627        0
H       18.54472078       8.02046181       1.49343932        0
H       20.05310321       7.91719001       1.41589862        0
O       13.45651552      36.85225710       1.72335074        0
H       14.17671617      36.35177860       2.10684016        0
H       13.13308793      36.30026771       1.01135765        0
O       33.46273748      31.51635349      13.58231396        0
H       33.29190801      30.63948247      13.92603818        0
H       33.45060141      32.08304266      14.35364265        0
O       18.68881282      33.00517115       5.87801486        0
H       18.82326113      32.07398989       5.70178503        0
H       19.50530838      33.42189548       5.60250139        0
O       14.18556079      24.07918245       3.35622398        0
H       13.68849558      24.61491013       3.97440993        0
H       14.53533805      23.36310615       3.88643378        0
O       17.41888962      37.11546388      14.51880027        0
H       17.82205799      37.10833375      15.38692254        0
H       17.54473704      38.01029497      14.20309222        0
O        0.85024755       1.15369011      19.60202730        0
H        0.75094530       1.54349032      20.47060470        0
H       -0.03940367       1.12148466      19.25029535        0
O       30.76743624      12.90237144      12.76227515        0
H       31.03618770      13.67324094      13.26203980        0
H       31.43698397      12.81040730      12.08442541        0
O       15.30607903      28.03159237      17.34756851        0
H       15.52760206      27.55357135      18.14672763        0
H       15.31082611      28.95224527      17.60949895        0
O       24.35619192       8.18537713      18.50977690        0
H       23.76933620       7.50810477      18.17342238        0
H       25.20130623       7.99430550      18.10295352        0
O        4.39685301      23.83438710      14.90820705        0
H        3.87861055      24.63052189      14.79062307        0
H        3.79756216      23.21787746      15.32891857        0
O       34.42142785      17.07632028       4.13760349        0
H       34.44425492      18.03151212       4.07999007        0
H       35.04888819      16.78103714       3.47780563        0
O        3.20180312      22.29691840       3.35240475        0
H        2.64161990      22.53616330       2.61403595        0
H        4.00128967      22.80692229       3.22221594        0
O       11.82256826       5.03126838      13.38162665        0
H       11.78630119       4.16084267      12.98504674        0
H       12.36303918       4.91653402      14.16326534        0
O       26.07436391       3.12832380      18.02710016        0
H       25.31993621       3.64114680      18.31707130        0
H       26.81037005       3.47989654      18.52802271        0
O       28.55235472      15.14262828       7.17978342        0
H       27.87925735      14.67993288       6.68069952        0
H       29.15579155      14.45571292       7.46305560        0
O        2.97617481      31.65587371      18.41115448        0
H        3.76451800      32.12829276      18.14363421        0
H        2.82853531      31.01970731      17.71134970        0
O        6.41754130      29.77308747      14.62394552        0
H        6.62949389      30.09049401      13.74612946        0
H        6.14423046      30.55565601      15.10260980        0
O        7.83444039       8.17792751      15.09753831        0
H        7.93779900       8.76311382      14.34713454        0
H        8.72621603       7.90610099      15.31451388        0
O       27.78386253      29.45366558       5.81802017        0
H       27.69565358      29.91815953       4.98573633        0
H       28.00644287      30.13606591       6.45128128        0
O       35.90505750      20.24588096       3.18210192        0
H       35.97842187      20.98921846       3.78068264        0
H       36.07303561      19.47913008       3.72992331        0
O       22.86332905      25.19744729      16.12523423        0
H       22.27966182      24.98562921      15.39674436        0
H       22.80609314      26.14919469      16.20969000        0
O       25.82640057      13.92391656       6.01710536        0
H       26.57483514      13.37369663       5.78616040        0
H       25.86459825      13.99297310       6.97104664        0
O       30.42867353      20.03161417      16.94200285        0
H       30.90421595      20.71792717      17.41004741        0
H       30.15440361      20.44515655      16.12347334        0
O       24.68677117      22.11765280      13.54349631        0
H       25.05651640      22.97625787      13.33778383        0
H       24.35507935      22.20700326      14.43693286        0
O       14.53958339      35.54501066      18.11459605        0
H       14.37860931      35.94679198      18.96834716        0
H       14.54086270      34.60378211      18.28871966        0
O       20.68465348      24.05583327       1.68699276        0
H       20.45651488      24.68396573       2.37229141        0
H       20.69567847      24.57288874       0.88153393        0
O       20.59573314       2.40755916       6.31446175        0
H       21.29086604       2.73282499       5.74242659        0
H       20.23614173       1.65209015       5.84949677        0
O       32.86091580      33.39873567       6.05991811        0
H       32.24660253      32.77013497       5.68082419        0
H       33.72547733      33.05416924       5.83622375        0
O       26.13232334      33.81558335      16.78034804        0
H       25.74407701      33.10559607      17.29163534        0
H       25.99033618      33.56033724      15.86879941        0
O       30.92657193      17.23380270      15.96190324        0
H       31.19563138      16.79681090      15.15389519        0
H       30.00872466      17.46323880      15.81648213        0
O       10.53658707      36.70527560       3.95963639        0
H       11.32879786      36.21785130       4.18558210        0
H       10.39808300      37.29500071       4.70076576        0
O       12.99916218      22.49195057      15.66137666        0
H       12.62495948      23.34049036      15.89840916        0
H       13.24657144      22.09681045      16.49736995        0
O       19.07886582      25.10383845      16.43672826        0
H       18.26811856      24.86320139      15.98838182        0
H       19.34373000      24.30770600      16.89743633        0
O       32.55005528       3.15179165       1.75365083        0
H       32.34603236       3.60226759       0.93409124        0
H       31.69861857       3.00718695       2.16641815        0
O       14.73866689      16.35865032       5.16750105        0
H       14.63202127      17.18353486       5.64123521        0
H       14.53450915      15.68265508       5.81370681        0
O       35.50006366      21.00026271      17.88967324        0
H       35.88036885      20.16743333      18.16894914        0
H       35.40754098      21.50483323      18.69780689        0
O       13.74539904      15.12464137       2.08342898        0
H       14.43249737      15.60132472       1.61770297        0
H       13.62020771      15.61624704       2.89514496        0
O       14.74633845       2.85015008       5.50517352        0
H       15.41542177       2.85490441       6.18967097        0
H       14.69451261       1.93585560       5.22658507        0
O       14.96480695      25.31082517      19.01891862        0
H       14.22716396      25.77295306      19.41710510        0
H       15.35334955      25.94924655      18.42085120        0
O       17.15432403       0.80362002       5.34988533        0
H       17.55578512       1.01044757       4.50591660        0
H       17.63862688       1.33420149       5.98247200        0
O       29.52806459      37.28154076      17.58269692        0
H       29.84939103      36.39098988      17.72376531        0
H       29.62879562      37.71044434      18.43247737        0
O       35.59428102       7.42937056      14.66048193        0
H       35.73699638       7.28062793      13.72574144        0
H       35.70633566       6.56704222      15.06056373        0
O       18.09710360      35.78530791      19.37349222        0
H       18.68139619      35.20188793      18.88928655        0
H       17.47182713      35.19911799      19.79968767        0
O       29.60688287       4.55453585      15.89894805        0
H       29.42189472       4.44654445      16.83187306        0
H       30.21702637       3.84669987      15.69176459        0
O       26.80727050       8.12222550      16.73254972        0
H       26.12465485       7.50551956      16.46808519        0
H       26.34172172       8.79970784      17.22297183        0
O       21.77982287      13.52696201      14.58981423        0
H       21.96916635      13.59383102      13.65391390        0
H       21.07681162      14.15940319      14.73822305        0
O       10.24456203      22.37780103      15.05739032        0
H       10.32634853      21.43525431      14.91196514        0
H       10.72617981      22.77524349      14.33191417        0
O       26.32230884      20.75045521       1.29324312        0
H       25.61871853      20.69005198       1.93941954        0
H       26.67785814      19.86322062       1.24194666        0
O       26.48379107       0.71028132       0.40088675        0
H       27.27507940       0.21691736       0.61695763        0
H       26.43903100       0.68549286      -0.55494478        0
O       34.77917050      28.53974635      16.72322629        0
H       35.18359736      29.31871396      16.34128362        0
H       33.85032109      28.76063320      16.79163397        0
O       31.52156365       4.32159558      17.67431498        0
H       31.30697834       5.25408848      17.64897782        0
H       31.86655005       4.13093704      16.80203890        0
O       27.09604202       6.49671396      18.82698761        0
H       27.03969191       5.65426189      19.27791002        0
H       26.58339652       6.37587275      18.02772304        0
O       36.54532116       2.41631026      15.67857920        0
H       37.08587608       1.65807401      15.90018696        0
H       36.29110990       2.78525929      16.52444272        0
O       18.42865168      31.45923053       3.97084718        0
H       17.95360248      30.79371265       3.47320670        0
H       19.31792297      31.11320520       4.04631167        0
O       21.72972124       6.55437050       0.40286620        0
H       21.18032281       5.81516415       0.66357134        0
H       22.38009589       6.62808003       1.10130128        0
O        4.22926296       9.91174046      13.38967068        0
H        4.30080057       9.35791524      14.16709710        0
H        3.30278019      10.14868997      13.34824067        0
O       29.24628943       1.91965649      15.77200912        0
H       29.20314690       1.51219713      14.90693836        0
H       29.61340088       1.24125452      16.33878226        0
O       22.64555502      14.11709130       6.40306224        0
H       22.26885885      13.26619100       6.62734002        0
H       23.58457781      13.95001392       6.32211053        0
O       25.09433244      27.94307726      14.57842069        0
H       25.26193154      27.61111619      13.69640922        0
H       25.73953643      27.49897104      15.12861459        0
O       32.36627197      15.20033713       5.75792335        0
H       32.44500341      14.29543401       5.45595723        0
H       33.14513417      15.63702820       5.41309524        0
O        6.30968165      19.72525392      17.54296116        0
H        6.74326347      19.11314579      18.13757219        0
H        5.45030729      19.87471183      17.93713102        0
O       26.10994103      30.17288970      16.48271632        0
H       26.29239871      29.23334560      16.46864763        0
H       25.15636559      30.23306501      16.42523027        0
O       11.94770570       8.17690444       3.05357571        0
H       12.31018238       7.39709735       2.63316710        0
H       11.21725452       7.84911660       3.57819752        0
O       33.28054493       3.32245061      19.10014914        0
H       33.71256228       3.18488223      18.25713800        0
H       32.54218399       3.89789456      18.90035123        0
O       35.33993099      32.46114850       4.22651409        0
H       36.12705557      32.31479286       4.75115374        0
H       34.90848751      33.20669684       4.64394196        0
O        2.25833081      21.05085831      14.34586383        0
H        2.89908245      21.11753085      15.05383554        0
H        1.56806003      21.66821977      14.58798553        0
O       34.97748041      12.25869561       4.64016696        0
H       34.79299828      12.69218331       5.47340558        0
H       35.89255225      11.98635360       4.70876142        0
O       21.72728461       3.94510424      13.44147929        0
H       20.91690712       3.60238915      13.81839642        0
H       22.16112422       4.39015818      14.16945046        0
O       16.55921942      11.05391177      13.71203826        0
H       16.94344883      10.47908780      13.05008886        0
H       15.74879459      10.61472853      13.97003343        0
O       30.97802782      20.50616575      13.94725708        0
H       31.40054840      19.72271488      13.59524437        0
H       31.19725543      20.49897118      14.87898629        0
O        2.94949635      16.71348491      13.80044628        0
H        3.57116812      17.31969301      14.20327104        0
H        3.19583958      15.85429527      14.14299556        0
O       35.74259770       9.84876584      15.96364992        0
H       36.37745820       9.40029743      15.40502655        0
H       35.00596936       9.24070375      16.02586744        0
O        5.48099433      30.39764084      17.63074910        0
H        5.54499126      31.35065030      17.69327275        0
H        4.56566261      30.20474966      17.83370890        0
O       32.51130537       8.85462708       6.94157434        0
H       31.71809768       8.32135399       6.88987114        0
H       32.19152790       9.75321453       7.02228873        0
O       32.70761886      26.88307813      19.06694894        0
H       32.72239610      27.59880477      18.43153659        0
H       32.10125539      27.17785533      19.74640578        0
O       19.42774992      25.24991286       5.85958475        0
H       18.50123730      25.36709975       6.06952151        0
H       19.49111810      25.45985386       4.92784385        0
O       21.65689134       5.80023155       2.82206457        0
H       21.42970517       4.88159943       2.96605525        0
H       20.81542664       6.25628879       2.80861878        0
O        2.93576557      12.64209174       3.69818657        0
H        3.11616774      12.41232723       4.60972109        0
H        3.72496159      12.38028407       3.22399439        0
O       15.94232036      18.59418003       6.29087890        0
H       15.77412561      18.14952225       7.12167480        0
H       15.27502586      19.27895501       6.24578881        0
O       11.69649973      12.69738406      12.76125721        0
H       12.15953686      12.42980679      11.96738640        0
H       12.31039024      12.51078317      13.47157432        0
O       34.91749772      36.55838451       3.16730399        0
H       34.11068717      36.11076436       2.91250056        0
H       34.75809101      37.47852510       2.95715492        0
O       16.68962327      20.73151393      17.82566909        0
H       16.30141993      21.57673879      17.59956083        0
H       17.62993271      20.85761278      17.69859006        0
O       24.03569406      35.91665533      16.05392522        0
H       24.71638408      35.46233624      15.55745055        0
H       23.54330964      35.21644665      16.48229099        0
O        2.66863159      37.04979673       1.25042820        0
H        3.44718077      37.21679671       1.78165698        0
H        2.54242191      37.85570980       0.74962178        0
O       16.94764210      10.43228291      19.67647769        0
H       17.45964602       9.72187583      20.06300791        0
H       16.87707093      10.20087837      18.75035486        0
O        1.55105026      18.78598417      17.59531585        0
H        2.33320465      19.29319958      17.37806282        0
H        0.94038289      18.96893195      16.88127991        0
O       28.92126649      34.76049033       6.94477494        0
H       28.80274405      33.81082897       6.96287430        0
H       28.20416367      35.08145955       6.39798967        0
O       13.63264838       1.20295708      19.54104656        0
H       14.03250043       1.36065372      20.39631374        0
H       12.97669548       0.52518672      19.70409557        0
O        1.84626631      17.91278371       2.66825256        0
H        1.65826051      17.40892004       3.46009033        0
H        1.46586704      17.39527307       1.95852658        0
O       23.79373919      28.15402550      16.81471556        0
H       23.47037921      28.34050184      17.69613302        0
H       24.70627277      27.89536576      16.94359320        0
O       28.24752870      25.01711711       4.65067932        0
H       28.52020923      25.25241634       5.53753412        0
H       27.44471519      25.51780672       4.50565443        0
O       13.01816522      29.56508410      19.38517372        0
H       13.03946727      28.94550203      18.65586163        0
H       13.31627542      29.05756537      20.14001602        0
O        8.26512037       0.66945944       5.50053507        0
H        8.14638247      -0.06507872       6.10268691        0
H        8.72262957       0.29224863       4.74911695        0
O       21.10291788       9.35089959      14.06070018        0
H       20.44777620       9.88231419      14.51304931        0
H       20.59159462       8.73424190      13.53675967        0
O       30.38362193      34.18914507      13.10534936        0
H       30.91126303      33.39050470      13.10483976        0
H       30.75762138      34.72431704      12.40538707        0
O       20.94856566      26.74159845      16.95834911        0
H       21.70315877      26.29711735      17.34468787        0
H       21.27333260      27.08700948      16.12681469        0
O       28.13326539      15.33462064      16.93439578        0
H       29.06533956      15.37527642      17.14844414        0
H       28.10198834      15.41876328      15.98141435        0
O       11.09772811      14.81400396       3.09865620        0
H       11.30248588      15.63217683       3.55131419        0
H       11.38799138      14.95883287       2.19809879        0
O        4.76918500       8.30614768      19.62983808        0
H        5.47611797       8.90037101      19.37809171        0
H        3.96736354       8.79526362      19.44523097        0
O       17.77362351       1.49977081      17.62041148        0
H       17.34529379       1.36620083      16.77487937        0
H       18.64081552       1.83926724      17.39916041        0
O       24.46846476      11.09303120       5.31639222        0
H       24.52354410      10.13929266       5.37623279        0
H       25.03695914      11.32055942       4.58067699        0
O       28.20035182      11.82695598       6.60395412        0
H       27.95784897      12.73955241       6.76077242        0
H       29.12454063      11.86319154       6.35738998        0
O       21.10917902      17.75216915      16.62744548        0
H       20.57224399      18.14347039      17.31651438        0
H       20.51565452      17.15687768      16.16963704        0
O       18.15516306      13.08204674      13.07438864        0
H       18.72963644      13.81249643      12.84492096        0
H       18.58746712      12.31173374      12.70565715        0
O       10.60485912       0.87924751       6.14904467        0
H       10.17231207       1.28077206       5.39544469        0
H       11.47033437       0.63046708       5.82455626        0
O       37.25105456      21.57512843       1.65514528        0
H       37.26720046      21.30316053       0.73753719        0
H       38.14088606      21.88125463       1.83041224        0
O       29.57659048      21.08504912       2.88004281        0
H       29.30264356      22.00221031       2.87950346        0
H       29.28273440      20.74731088       3.72610033        0
O       32.57702026      34.66643229      14.29998880        0
H       32.51532160      34.07970530      15.05376368        0
H       32.60082531      35.54439487      14.68057634        0
O       28.36239494      17.98151379      15.30191959        0
H       28.63564306      18.88118345      15.12258249        0
H       27.68267655      18.06591103      15.97056887        0
O        7.47359444      10.15799638       1.86428523        0
H        6.81367252      10.69645160       2.30109284        0
H        7.29033275       9.26643854       2.16054796        0
O       18.69772377      31.01254118      15.79106469        0
H       18.76026482      31.71817209      16.43480802        0
H       19.24151882      31.30578730      15.05995218        0
O       32.74423595       6.63524367       3.60176841        0
H       32.91833677       6.14841974       4.40732611        0
H       33.38024818       6.29412064       2.97299550        0
O       16.71072971       4.04912631      19.23666230        0
H       16.24364239       4.43166590      18.49388054        0
H       17.31666603       4.73465673      19.51794695        0
O       19.19030283       3.96048606      15.55279857        0
H       18.69407901       3.46079253      14.90449298        0
H       18.90020711       3.61368022      16.39648217        0
O       18.16070062      17.87572074       1.25336211        0
H       17.96779213      18.74427211       0.90032293        0
H       18.54107652      17.39650511       0.51722462        0
O        8.80883398      37.36506767      15.92298830        0
H        9.45635304      37.42295904      15.22042193        0
H        8.69990379      38.26718833      16.22389422        0
O       21.51833432      27.65783567       5.77636261        0
H       21.23620212      27.15499807       6.54042256        0
H       20.88910042      27.42854045       5.09246187        0
O       10.95008515       7.52188214      14.38139927        0
H       11.48849976       7.23397389      13.64420839        0
H       11.57732861       7.86975915      15.01525971        0
O        3.70903563      20.17658567       6.68687187        0
H        3.66347132      20.53186491       5.79921631        0
H        4.09916665      20.87919041       7.20684899        0
O       27.18521943      37.29225735       5.08263698        0
H       26.69436474      36.63455237       4.58997313        0
H       28.08866061      37.19194977       4.78269657        0
O       34.74308410      35.94431102      15.36022838        0
H       33.94260693      36.43503315      15.17405656        0
H       35.30172168      36.09842508      14.59838538        0
O        6.54988879       2.36398675       1.31031321        0
H        7.00880774       3.07004257       1.76540706        0
H        6.97947893       1.56408225       1.61335930        0
O       20.89306891      31.37138491      17.92278690        0
H       20.77596876      32.25322517      18.27616652        0
H       20.01490879      30.99061825      17.93191853        0
O       22.64158412      18.35164960       7.09509582        0
H       23.15862900      18.66876172       6.35459847        0
H       21.73812140      18.57297771       6.86926221        0
O       34.62228672      34.88606713       1.44461336        0
H       35.09713443      34.35555878       2.08438862        0
H       35.25647416      35.04307995       0.74505271        0
O       11.65352703      26.64423367       4.79647587        0
H       12.16372143      27.16620745       4.17722076        0
H       11.82345218      27.04783694       5.64762902        0
O       28.51424599      26.61674686       1.97101377        0
H       27.66453866      26.98899203       2.20694348        0
H       28.36115103      25.67252761       1.93574645        0
O       17.94024115      18.03297953      16.70267559        0
H       16.98550433      17.96494580      16.71166763        0
H       18.24562098      17.12591633      16.71721367        0
O       19.39486276      14.52635822       1.99043254        0
H       18.71046658      13.87252687       2.13304484        0
H       19.79427776      14.64749818       2.85184104        0
O       18.35821281      25.16652310      13.55551116        0
H       18.79326318      25.90744650      13.97740633        0
H       19.07097890      24.57388569      13.31681209        0
O       17.79329161      27.40334678      15.17006050        0
H       17.53478410      27.68232067      16.04845636        0
H       18.68614001      27.73255816      15.06674818        0
O       13.12583158      19.38597292       0.01237092        0
H       13.29335408      19.69443895      -0.87814397        0
H       13.66228524      19.95206742       0.56733608        0
O       19.96994749      37.29612769      19.47661340        0
H       19.43834543      37.41694344      18.68982586        0
H       19.99484911      36.34806349      19.60617432        0
O       32.88754327       2.25923942      16.96407354        0
H       33.13944830       2.96140050      16.36428564        0
H       32.46422477       1.60705691      16.40578037        0
O        4.50415968      33.95129320       6.51232950        0
H        3.66618829      33.67374015       6.88246473        0
H        4.74857156      33.24442107       5.91497997        0
O       34.26505709      28.44002016       6.05761091        0
H       34.09220387      29.05854538       5.34783619        0
H       34.37018870      27.59541662       5.61963368        0
O       37.16390174      29.21434598      17.75181789        0
H       36.69821241      30.04901964      17.69999937        0
H       36.52269819      28.60398575      18.11589238        0
O       29.20841567      30.77775119       1.02628680        0
H       30.12823285      30.65423188       0.79195546        0
H       28.86487240      31.36181956       0.35021431        0
O        8.36125993      17.88968378       5.88851907        0
H        8.36645966      18.12466993       4.96062559        0
H        8.38121131      18.72877383       6.34869477        0
O       11.87871634      20.82571121      13.66106563        0
H       11.76793258      21.26205525      14.50579202        0
H       12.76207849      21.06553982      13.38109172        0
O       10.60601409       5.62775134       4.92166599        0
H        9.77082089       6.03813295       4.69745383        0
H       10.97905139       6.19557414       5.59594507        0
O       34.78874906      20.54310564      13.49458587        0
H       34.01047052      21.08623030      13.36996654        0
H       34.44550567      19.68708614      13.75080145        0
O       33.12322199      24.87626918       5.48532859        0
H       33.67955640      24.09976948       5.42391140        0
H       32.23000354      24.53218726       5.48479293        0
O        1.80950090      29.37192226      18.75384810        0
H        0.88037052      29.58823231      18.67537170        0
H        1.82141362      28.43949966      18.96989910        0
O        8.21548273      32.96189875      13.73278504        0
H        7.63589689      33.64027115      14.07937267        0
H        8.66038107      33.38002619      12.99558306        0
O       29.20001593       3.93435112       6.31861587        0
H       29.85232677       3.92591524       5.61815085        0
H       28.42009461       4.31590566       5.91566338        0
O        4.66926101      22.51880860       1.46304535        0
H        4.45043477      23.42629731       1.67473181        0
H        5.42565328      22.31938262       2.01470817        0
O        5.89235064      22.95308968      12.92994534        0
H        5.21052557      22.29224072      13.05087950        0
H        5.83691854      23.50114186      13.71275945        0
O       33.89616694       9.49307050      19.18789256        0
H       33.31945296       8.73038585      19.23199425        0
H       33.93869245       9.70823103      18.25615796        0
O       21.10806382       1.52365962      17.60592506        0
H       21.10156495       1.43521903      18.55900841        0
H       21.65746105       2.28967095      17.43972889        0
O       13.61511947      23.17712173      19.71982590        0
H       14.38840066      22.63645050      19.55875865        0
H       12.87720325      22.62114011      19.46963411        0
O       32.38151110      28.03618700      15.49569205        0
H       32.66683910      27.29702611      16.03277766        0
H       31.58363156      27.72717632      15.06658544        0
O       21.39569805      23.30713704      14.71858911        0
H       20.48504324      23.14851665      14.96714341        0
H       21.86785637      23.34781871      15.55024010        0
O       28.74633912      33.30649403       1.63727228        0
H       28.19549083      33.59000831       0.90760272        0
H       28.28070549      33.60356758       2.41904237        0
O       36.56309593      26.15134951      19.04161980        0
H       36.42979511      25.80043944      18.16109448        0
H       36.33443506      25.42804163      19.62537639        0
O       22.16904282       5.25495170       5.97827670        0
H       21.81340531       4.76676756       5.23569334        0
H       23.11656225       5.24064578       5.84324302        0
O       32.69606039       6.85525598      14.65340830        0
H       32.11408111       7.60932822      14.74778524        0
H       33.03914334       6.70515653      15.53431470        0
O       23.19611718      26.15580031       4.16368665        0
H       23.57670933      26.76315886       3.52926010        0
H       22.26973937      26.11081851       3.92697453        0
O       35.31955767       1.46216824       3.44166656        0
H       35.62095350       1.99741121       2.70756346        0
H       34.94237456       2.09025776       4.05767654        0
O       13.66075765      26.18481636      14.61024991        0
H       13.76025382      27.10834363      14.37910117        0
H       12.71438841      26.04219417      14.62686329        0
O       29.26318335      24.21722323      16.47916654        0
H       29.79377167      24.90993232      16.08564146        0
H       29.53996023      24.19398865      17.39518322        0
O       23.87932047      13.53928345      18.63756558        0
H       23.16114126      14.15845684      18.50689514        0
H       23.96189258      13.08688777      17.79807059        0
O        5.32150342      17.52150923       4.37904526        0
H        5.88435767      17.45049977       5.15000867        0
H        5.86752415      17.21663919       3.65437467        0
O       25.74989916      28.77187038       0.94466593        0
H       25.57992793      29.28881027       0.15719227        0
H       25.17322728      29.14954642       1.60877601        0
O        4.97145138       6.64056056       4.61912071        0
H        5.77842397       6.47667561       5.10714612        0
H        4.90269673       7.59458466       4.58247824        0
O       26.25296133      10.72691159       1.77739783        0
H       26.11877341       9.87302937       1.36616726        0
H       26.14346133      11.35639776       1.06466454        0
O       21.87556862      12.42911629       0.55629699        0
H       22.77041367      12.27836834       0.86086101        0
H       21.70779292      11.71490669      -0.05851013        0
O       17.96391861      13.40564015       4.84658367        0
H       17.83014716      14.35029659       4.76937452        0
H       17.12921448      13.02225530       4.57729404        0
O        9.14915151      23.02342029      19.22756637        0
H        9.94355881      22.51569063      19.39297335        0
H        9.43779457      23.74575448      18.66975786        0
O       30.27623207      26.81859593      15.38042334        0
H       30.98655254      26.18652602      15.27013148        0
H       30.38644058      27.15039803      16.27148635        0
O       19.75322811      26.76852417       1.12426413        0
H       19.57581928      26.61824413       0.19573095        0
H       19.34876894      27.61555218       1.31184923        0
O        5.82889155       2.12174443      15.55840127        0
H        6.06748186       2.31679023      14.65216530        0
H        5.04203167       1.58120662      15.48838528        0
O       31.37394781      31.47524659       6.71696374        0
H       32.07736421      32.03897438       7.03890812        0
H       31.71528900      31.10731682       5.90188968        0
O        7.70757540      31.28020012       5.48091073        0
H        7.92353566      31.72449142       4.66103377        0
H        7.70448772      30.34978259       5.25608739        0
O       37.13852673      27.40363272       5.18973236        0
H       36.39369901      27.94430198       5.45267770        0
H       37.01182352      27.26034207       4.25183795        0
O        3.27824121      37.61609067       6.33730320        0
H        3.48690015      38.55009538       6.35542782        0
H        2.45111789      37.56421941       5.85833742        0
O       11.00168518      29.87931215       5.98795649        0
H       10.92632047      29.31593529       5.21778864        0
H       10.20822071      29.70240257       6.49327716        0
O        2.42832132       5.80905651       5.64972695        0
H        1.48622124       5.74031710       5.49495558        0
H        2.70210713       6.56572765       5.13134296        0
O        4.95343394      31.74072836      13.30005997        0
H        4.92957574      32.23406435      12.48013179        0
H        5.64822464      31.09499914      13.17148510        0
O        0.97369309      32.45525924       3.86962202        0
H        1.86275748      32.13348718       4.01881687        0
H        0.79928642      33.03209972       4.61330825        0
O        8.35827330       6.15898783      16.60422372        0
H        9.21854151       6.27313907      17.00812958        0
H        7.79241337       5.87327943      17.32144411        0
O       35.04467091      35.01593766      12.84559006        0
H       35.84086317      35.53428333      12.96232688        0
H       34.77567655      34.78566984      13.73488788        0
O        2.31199094      26.87417314      17.64054866        0
H        2.49288040      27.59978901      17.04306020        0
H        2.88548751      27.03212831      18.39047112        0
O       13.92220422      23.70154757      13.57696907        0
H       13.63087890      22.91594746      13.11415823        0
H       13.11299065      24.12698761      13.86052859        0
O       24.03015898       1.78201644       3.25088197        0
H       24.29267601       2.65076736       2.94659841        0
H       24.27122036       1.76917850       4.17714135        0
O       20.12249631       4.46995253      18.27792373        0
H       20.55780873       3.68152305      17.95371099        0
H       19.19772920       4.33611939      18.07025494        0
O       37.40541283      27.96556534      14.10776825        0
H       36.53668378      27.63731089      14.33969645        0
H       37.75133580      28.32659250      14.92399649        0
O        1.06870881      10.18110777      16.17602938        0
H        0.34317876      10.51655084      16.70263733        0
H        0.76579896       9.32761571      15.86614429        0
O       13.85635987       7.42381625      17.42124287        0
H       14.54693080       7.21542733      18.05046277        0
H       13.25909454       7.99722214      17.90156739        0
O        9.31964411       1.98190820       3.19101043        0
H        9.45845090       1.24154897       2.60038980        0
H        9.56265778       2.75005579       2.67416860        0
O        5.45359577      24.46946969      18.86989956        0
H        5.10862586      25.28782121      19.22701072        0
H        6.09115603      24.17391219      19.51981841        0
O        8.58084694      23.36264720       4.58981607        0
H        8.96725510      24.13528982       4.17757347        0
H        7.64646627      23.42728075       4.39236456        0
O       20.32112365      21.25650818       5.83721253        0
H       19.52163531      20.73338960       5.89549786        0
H       20.09870253      22.08325950       6.26528139        0
O       12.09823765       9.61368324      13.17110813        0
H       12.12862290       8.71727747      13.50542127        0
H       12.67287592      10.10756186      13.75600692        0
O        0.87178819      37.04085795      17.75039122        0
H        0.96784015      36.83100441      16.82143086        0
H        0.60787938      37.96087756      17.76255259        0
O       12.29592677      29.18546175      13.59006676        0
H       11.49245471      29.68756365      13.45383838        0
H       12.63117998      29.49293351      14.43226522        0
O       14.08610625       4.12904726      14.60510558        0
H       13.39450511       4.40162932      15.20811365        0
H       14.53750716       3.41966674      15.06254229        0
O        1.89122577      28.96922026      12.75183437        0
H        1.99450675      28.34697870      13.47182071        0
H        0.95279074      28.96446956      12.56329003        0
O       12.23866267      35.30196428      19.75097964        0
H       13.14919854      35.09868882      19.53688771        0
H       11.72508045      34.78673556      19.12888277        0
O       24.97553754      12.40537561      16.68826737        0
H       25.09066368      11.63853134      16.12708318        0
H       25.41531507      13.11435049      16.21903162        0
O       34.45365724      26.18212895      16.31436622        0
H       35.00757003      26.61029167      15.66161118        0
H       35.03071679      25.54809081      16.74007711        0
O       29.82634636      15.89586151       3.94826136        0
H       28.90444123      15.74189429       3.74182283        0
H       29.96611045      15.43892254       4.77766151        0
O       16.11403112      22.23574235      14.23041346        0
H       15.47905045      21.57369292      14.50376662        0
H       16.23593462      22.07916778      13.29400768        0
O       27.27037637       5.78271746      15.55511661        0
H       28.14928966       5.72763508      15.93022887        0
H       27.39895146       5.62976473      14.61900457        0
O        6.58007879      33.78941975       4.85493447        0
H        6.59777178      34.04759554       5.77648971        0
H        5.65656933      33.84178885       4.60872400        0
O        0.03615877       0.23069435      14.28302226        0
H        0.47842484       1.00533819      14.63023901        0
H       -0.26138479      -0.24388424      15.05921478        0
O        4.18128560      25.29983544      16.95202261        0
H        4.30033683      25.30194929      17.90178794        0
H        4.85958677      25.89010823      16.62381934        0
O       19.82576068      33.21489576      15.15992813        0
H       20.08674605      32.46616896      14.62371301        0
H       20.09570975      33.97978451      14.65169143        0
O       34.81409401       0.42329639      12.69180172        0
H       34.75110328       0.54804786      13.63874474        0
H       33.91367673       0.50774142      12.37819432        0
O       15.00281142      35.11480962      15.05415735        0
H       15.24701930      34.80013117      15.92454337        0
H       15.53435001      34.59343774      14.45260109        0
O       28.07083248      12.13106573      16.94589845        0
H       28.34432437      12.40697297      17.82071799        0
H       27.11482323      12.17282367      16.96901602        0
O       33.59441022      13.80012539      16.24888802        0
H       34.02360993      14.19438484      15.48956007        0
H       33.49655666      12.87669853      16.01663958        0
O        4.13721047      26.93066405       4.36516330        0
H        4.16862587      25.98371077       4.50126765        0
H        3.20544805      27.14721976       4.39913770        0
O        6.72123572      29.58755682       3.50890259        0
H        7.64592671      29.50188164       3.27687203        0
H        6.34916280      30.13201351       2.81510111        0
O       32.46150365      24.25382593       1.49302290        0
H       33.28090323      24.36245181       1.97574082        0
H       32.32417338      23.30699431       1.46332238        0
O       11.69107687      11.47199747      15.49278194        0
H       11.68078540      12.27479911      16.01396852        0
H       12.21881505      10.85975577      16.00550444        0
O       13.78789489      31.41484331       2.98026143        0
H       14.01636382      30.54524572       2.65188083        0
H       12.83630948      31.39095894       3.08099166        0
O        3.85366781      30.63301187      15.42042145        0
H        3.01958710      30.96105657      15.08437400        0
H        3.61088198      30.06244927      16.14963006        0
O       31.40841931      22.31968618       6.49932393        0
H       31.86979700      22.20587489       7.33023274        0
H       31.01529855      21.46472174       6.32404210        0
O       28.99270966      30.52109028      16.63040045        0
H       28.22851843      30.94363453      17.02244633        0
H       29.57593097      30.34681935      17.36912528        0
O       34.37643104      30.81731058      15.97631451        0
H       33.50271596      30.54088237      16.25279460        0
H       34.88020823      30.86846830      16.78860958        0
O       10.43713627      34.05052240       6.62374184        0
H        9.75947565      34.71861446       6.52049013        0
H       10.09947942      33.29086105       6.14925862        0
O       12.64700660       2.20950911       6.48092531        0
H       13.40569563       1.83138864       6.03634944        0
H       12.81132016       2.05331173       7.41089050        0
O        0.42594790      14.49991755      16.64963012        0
H       -0.08949187      15.25799229      16.37417345        0
H       -0.14960032      13.75033298      16.49764637        0
O       37.33993490      31.78417703       1.92344395        0
H       37.29602991      32.48716379       2.57160582        0
H       36.43889991      31.46982540       1.84893995        0
O       21.88373595      30.96582569       6.18264093        0
H       21.02200100      30.77259067       5.81344593        0
H       21.80091168      31.85226298       6.53421013        0
O       25.77524160       8.60319684      14.07529163        0
H       26.19022834       9.44948828      13.90853240        0
H       26.36736011       8.16132856      14.68388010        0
O       17.04131995      28.50811951       6.24425620        0
H       16.61010182      28.53491894       7.09840172        0
H       16.49462271      29.05704770       5.68208914        0
O        7.22886603      14.83242596      14.76849362        0
H        7.86781818      15.54354626      14.72074528        0
H        7.28669039      14.51801736      15.67073273        0
O       15.23778130      13.55294061       5.21957501        0
H       14.42439960      13.71938915       5.69595400        0
H       15.38731083      14.35161247       4.71361453        0
O       37.15565400      23.93949545       2.93116091        0
H       36.20659291      23.90386278       3.05051416        0
H       37.35577506      24.87396083       2.87677486        0
O       16.19563925       2.80501169       1.86313651        0
H       16.44738168       1.89076774       1.99358033        0
H       16.92144601       3.18556232       1.36854818        0
O       20.98030076      26.71268923      14.06968374        0
H       20.05409718      26.87531105      13.89098592        0
H       21.22261448      26.01328370      13.46276709        0
O       26.80673016       8.77527379       6.06351523        0
H       26.42762677       8.58471945       6.92153708        0
H       26.07517723       8.68590721       5.45271594        0
O        0.28465916      33.04080254       6.53351401        0
H        0.29101693      32.09955237       6.35961881        0
H       -0.44869245      33.37528580       6.01723094        0
O       17.90537309       0.70785619       1.76479028        0
H       17.86071966       1.30463194       2.51184892        0
H       17.83601895       1.27712534       0.99839973        0
O       30.23483834      25.02836974      13.22862941        0
H       31.00115530      24.96391491      13.79857303        0
H       29.56545427      24.50227707      13.66610320        0
O       16.40252020       3.16665375      14.88163861        0
H       17.07816216       2.66803917      15.34112015        0
H       16.61928306       4.08240462      15.05669873        0
O       21.36350315      13.28083808      17.67857153        0
H       21.00201485      13.23764128      18.56383538        0
H       21.10083117      14.14211103      17.35384984        0
O       20.38537550       9.22853084       4.45542444        0
H       20.28820059       8.36616509       4.85929843        0
H       20.47691719       9.83049301       5.19399975        0
O       27.41406153      22.37455904       2.89083301        0
H       27.92262912      21.97783377       2.18358489        0
H       28.06334371      22.82907524       3.42756341        0
O        3.15120988       5.99891546      18.01299322        0
H        2.60136003       6.21908739      17.26104820        0
H        2.80811516       5.16121893      18.32409187        0
O       22.14889231      35.12138180       4.40932927        0
H       21.58676107      34.50698847       4.88130507        0
H       22.81116198      35.38127548       5.04970884        0
O        4.85783222      33.96529624      19.07971100        0
H        4.45223648      34.01526501      19.94529002        0
H        4.90349964      34.87428176      18.78324572        0
O       34.35483689      15.68682471      13.03573837        0
H       33.47889107      15.98917785      13.27559943        0
H       34.29956894      14.73222457      13.07950894        0
O        7.95244186      23.85995062       1.50554761        0
H        8.00321367      22.96896330       1.85166271        0
H        7.26779045      23.81937750       0.83783650        0
